\ENCODING=ISO-8859-1
\Problem name: IloCplex

Minimize
 obj1: 160 s_z_0_1 + 160 s_z_0_4 + 160 s_z_0_5 + 160 s_z_0_6 + 160 s_z_1_0
       + 160 s_z_1_4 + 160 s_z_1_5 + 160 s_z_1_8 + 160 s_z_2_4 + 160 s_z_2_5
       + 160 s_z_3_4 + 160 s_z_3_5 + 160 s_z_4_0 + 160 s_z_4_1 + 160 s_z_4_2
       + 160 s_z_4_3 + 160 s_z_4_8 + 160 s_z_5_0 + 160 s_z_5_1 + 160 s_z_5_2
       + 160 s_z_5_3 + 160 s_z_5_8 + 160 s_z_6_0 + 160 s_z_6_8
       + 43.2998485452851 psi_6_0 + 104.932924209852 psi_6_1
       + 28.9004660110609 psi_7_0 + 82.7997260168101 psi_7_1 + 160 s_z_8_1
       + 160 s_z_8_4 + 160 s_z_8_5 + 160 s_z_8_6 + 4 t_8
Subject To
 c1:   phi_0  = 0
 c2:   y_d_0 - y_a_0  = 0
 c3:   phi_1  = 0
 c4:   y_d_1 - y_a_1  = 0
 c5:   phi_2  = 0
 c6:   y_d_2 - y_a_2  = 0
 c7:   phi_3  = 0
 c8:   y_d_3 - y_a_3  = 0
 c9:   phi_4  = 0
 c10:  y_d_4 - y_a_4  = 0
 c11:  phi_5  = 0
 c12:  y_d_5 - y_a_5  = 0
 c13:  psi_6_0 - 92.3790760103145 w_6_0 <= 0
 c14:  psi_6_0 >= 0
 c15:  psi_6_1 - 38.1195895389376 w_6_1 <= 0
 c16:  psi_6_1 >= 0
 c17:  - psi_6_0 - psi_6_1 + phi_6  = 0
 c18:  - 0.865996970905702 psi_6_0 - 2.09865848419704 psi_6_1 - y_a_6 + y_d_6
        = 0
 c19:  psi_7_0 - 138.40607270724 w_7_0 <= 0
 c20:  psi_7_0 >= 0
 c21:  psi_7_1 - 48.30933859839 w_7_1 <= 0
 c22:  psi_7_1 >= 0
 c23:  - psi_7_0 - psi_7_1 + phi_7  = 0
 c24:  - 0.578009320221218 psi_7_0 - 1.6559945203362 psi_7_1 - y_a_7 + y_d_7
        = 0
 c25:  phi_8  = 0
 c26:  y_d_8 - y_a_8  = 0
 c27:  s_z_0_1 - s_0_1 <= 0
 c28:  s_z_0_1 - 4.51774279923061 z_0_1 <= 0
 c29:  s_z_0_1 >= 0
 c30:  z_0_1 - x_0_1 <= 0
 c31:  s_z_0_2  = 0
 c32:  x69  = 0
 c33:  s_z_0_3  = 0
 c34:  x71  = 0
 c35:  s_z_0_4 - s_0_4 <= 0
 c36:  s_z_0_4 - 5.70087712549569 z_0_4 <= 0
 c37:  s_z_0_4 >= 0
 c38:  z_0_4 - x_0_4 <= 0
 c39:  s_z_0_5 - s_0_5 <= 0
 c40:  s_z_0_5 - 5.57135531087365 z_0_5 <= 0
 c41:  s_z_0_5 >= 0
 c42:  z_0_5 - x_0_5 <= 0
 c43:  s_z_0_6 - s_0_6 <= 0
 c44:  s_z_0_6 - 4.60434577328853 z_0_6 <= 0
 c45:  s_z_0_6 >= 0
 c46:  z_0_6 - x_0_6 <= 0
 c47:  s_z_0_7  = 0
 c48:  x82  = 0
 c49:  s_z_0_8  = 0
 c50:  x84  = 0
 c51:  s_z_1_0 - s_1_0 <= 0
 c52:  s_z_1_0 - 4.51774279923061 z_1_0 <= 0
 c53:  s_z_1_0 >= 0
 c54:  z_1_0 - x_1_0 <= 0
 c55:  s_z_1_2  = 0
 c56:  x89  = 0
 c57:  s_z_1_3  = 0
 c58:  x91  = 0
 c59:  s_z_1_4 - s_1_4 <= 0
 c60:  s_z_1_4 - 5.91692487699481 z_1_4 <= 0
 c61:  s_z_1_4 >= 0
 c62:  z_1_4 - x_1_4 <= 0
 c63:  s_z_1_5 - s_1_5 <= 0
 c64:  s_z_1_5 - 5.41202365109392 z_1_5 <= 0
 c65:  s_z_1_5 >= 0
 c66:  z_1_5 - x_1_5 <= 0
 c67:  s_z_1_6  = 0
 c68:  x99  = 0
 c69:  s_z_1_7  = 0
 c70:  x101  = 0
 c71:  s_z_1_8 - s_1_8 <= 0
 c72:  s_z_1_8 - 4.51774279923061 z_1_8 <= 0
 c73:  s_z_1_8 >= 0
 c74:  z_1_8 - x_1_8 <= 0
 c75:  s_z_2_0  = 0
 c76:  x106  = 0
 c77:  s_z_2_1  = 0
 c78:  x108  = 0
 c79:  s_z_2_3  = 0
 c80:  x110  = 0
 c81:  s_z_2_4 - s_2_4 <= 0
 c82:  s_z_2_4 - 5.66480361530742 z_2_4 <= 0
 c83:  s_z_2_4 >= 0
 c84:  z_2_4 - x_2_4 <= 0
 c85:  s_z_2_5 - s_2_5 <= 0
 c86:  s_z_2_5 - 5.22015325445527 z_2_5 <= 0
 c87:  s_z_2_5 >= 0
 c88:  z_2_5 - x_2_5 <= 0
 c89:  s_z_2_6  = 0
 c90:  x118  = 0
 c91:  s_z_2_7  = 0
 c92:  x120  = 0
 c93:  s_z_2_8  = 0
 c94:  x122  = 0
 c95:  s_z_3_0  = 0
 c96:  x124  = 0
 c97:  s_z_3_1  = 0
 c98:  x126  = 0
 c99:  s_z_3_2  = 0
 c100: x128  = 0
 c101: s_z_3_4 - s_3_4 <= 0
 c102: s_z_3_4 - 5.85234995535981 z_3_4 <= 0
 c103: s_z_3_4 >= 0
 c104: z_3_4 - x_3_4 <= 0
 c105: s_z_3_5 - s_3_5 <= 0
 c106: s_z_3_5 - 5.41202365109392 z_3_5 <= 0
 c107: s_z_3_5 >= 0
 c108: z_3_5 - x_3_5 <= 0
 c109: s_z_3_6  = 0
 c110: x136  = 0
 c111: s_z_3_7  = 0
 c112: x138  = 0
 c113: s_z_3_8  = 0
 c114: x140  = 0
 c115: s_z_4_0 - s_4_0 <= 0
 c116: s_z_4_0 - 5.70087712549569 z_4_0 <= 0
 c117: s_z_4_0 >= 0
 c118: z_4_0 - x_4_0 <= 0
 c119: s_z_4_1 - s_4_1 <= 0
 c120: s_z_4_1 - 5.91692487699481 z_4_1 <= 0
 c121: s_z_4_1 >= 0
 c122: z_4_1 - x_4_1 <= 0
 c123: s_z_4_2 - s_4_2 <= 0
 c124: s_z_4_2 - 5.66480361530742 z_4_2 <= 0
 c125: s_z_4_2 >= 0
 c126: z_4_2 - x_4_2 <= 0
 c127: s_z_4_3 - s_4_3 <= 0
 c128: s_z_4_3 - 5.85234995535981 z_4_3 <= 0
 c129: s_z_4_3 >= 0
 c130: z_4_3 - x_4_3 <= 0
 c131: s_z_4_5  = 0
 c132: x154  = 0
 c133: s_z_4_6  = 0
 c134: x156  = 0
 c135: s_z_4_7  = 0
 c136: x158  = 0
 c137: s_z_4_8 - s_4_8 <= 0
 c138: s_z_4_8 - 5.70087712549569 z_4_8 <= 0
 c139: s_z_4_8 >= 0
 c140: z_4_8 - x_4_8 <= 0
 c141: s_z_5_0 - s_5_0 <= 0
 c142: s_z_5_0 - 5.57135531087365 z_5_0 <= 0
 c143: s_z_5_0 >= 0
 c144: z_5_0 - x_5_0 <= 0
 c145: s_z_5_1 - s_5_1 <= 0
 c146: s_z_5_1 - 5.41202365109392 z_5_1 <= 0
 c147: s_z_5_1 >= 0
 c148: z_5_1 - x_5_1 <= 0
 c149: s_z_5_2 - s_5_2 <= 0
 c150: s_z_5_2 - 5.22015325445527 z_5_2 <= 0
 c151: s_z_5_2 >= 0
 c152: z_5_2 - x_5_2 <= 0
 c153: s_z_5_3 - s_5_3 <= 0
 c154: s_z_5_3 - 5.41202365109392 z_5_3 <= 0
 c155: s_z_5_3 >= 0
 c156: z_5_3 - x_5_3 <= 0
 c157: s_z_5_4  = 0
 c158: x175  = 0
 c159: s_z_5_6  = 0
 c160: x177  = 0
 c161: s_z_5_7  = 0
 c162: x179  = 0
 c163: s_z_5_8 - s_5_8 <= 0
 c164: s_z_5_8 - 5.57135531087365 z_5_8 <= 0
 c165: s_z_5_8 >= 0
 c166: z_5_8 - x_5_8 <= 0
 c167: s_z_6_0 - s_6_0 <= 0
 c168: s_z_6_0 - 4.60434577328853 z_6_0 <= 0
 c169: s_z_6_0 >= 0
 c170: z_6_0 - x_6_0 <= 0
 c171: s_z_6_1  = 0
 c172: x187  = 0
 c173: s_z_6_2  = 0
 c174: x189  = 0
 c175: s_z_6_3  = 0
 c176: x191  = 0
 c177: s_z_6_4  = 0
 c178: x193  = 0
 c179: s_z_6_5  = 0
 c180: x195  = 0
 c181: s_z_6_7  = 0
 c182: x197  = 0
 c183: s_z_6_8 - s_6_8 <= 0
 c184: s_z_6_8 - 4.60434577328853 z_6_8 <= 0
 c185: s_z_6_8 >= 0
 c186: z_6_8 - x_6_8 <= 0
 c187: s_z_7_0  = 0
 c188: x202  = 0
 c189: s_z_7_1  = 0
 c190: x204  = 0
 c191: s_z_7_2  = 0
 c192: x206  = 0
 c193: s_z_7_3  = 0
 c194: x208  = 0
 c195: s_z_7_4  = 0
 c196: x210  = 0
 c197: s_z_7_5  = 0
 c198: x212  = 0
 c199: s_z_7_6  = 0
 c200: x214  = 0
 c201: s_z_7_8  = 0
 c202: x216  = 0
 c203: s_z_8_0  = 0
 c204: x218  = 0
 c205: s_z_8_1 - s_8_1 <= 0
 c206: s_z_8_1 - 4.51774279923061 z_8_1 <= 0
 c207: s_z_8_1 >= 0
 c208: z_8_1 - x_8_1 <= 0
 c209: s_z_8_2  = 0
 c210: x223  = 0
 c211: s_z_8_3  = 0
 c212: x225  = 0
 c213: s_z_8_4 - s_8_4 <= 0
 c214: s_z_8_4 - 5.70087712549569 z_8_4 <= 0
 c215: s_z_8_4 >= 0
 c216: z_8_4 - x_8_4 <= 0
 c217: s_z_8_5 - s_8_5 <= 0
 c218: s_z_8_5 - 5.57135531087365 z_8_5 <= 0
 c219: s_z_8_5 >= 0
 c220: z_8_5 - x_8_5 <= 0
 c221: s_z_8_6 - s_8_6 <= 0
 c222: s_z_8_6 - 4.60434577328853 z_8_6 <= 0
 c223: s_z_8_6 >= 0
 c224: z_8_6 - x_8_6 <= 0
 c225: s_z_8_7  = 0
 c226: x236  = 0
 c227: x_0_1 + x_0_4 + x_0_5 + x_0_6 + x_0_2 + x_0_3 + x_0_7 + x_0_8  = 1
 c228: x_1_8 + x_4_8 + x_5_8 + x_6_8 + x_0_8 + x_2_8 + x_3_8 + x_7_8  = 1
 c229: x_0_1 + x_4_1 + x_5_1 + x_8_1 + x_2_1 + x_3_1 + x_6_1 + x_7_1  = 1
 c230: x_1_0 + x_1_4 + x_1_5 + x_1_8 + x_1_2 + x_1_3 + x_1_6 + x_1_7  = 1
 c231: x_4_2 + x_5_2 + x_0_2 + x_1_2 + x_3_2 + x_6_2 + x_7_2 + x_8_2  = 1
 c232: x_2_4 + x_2_5 + x_2_8 + x_2_1 + x_2_0 + x_2_3 + x_2_6 + x_2_7  = 1
 c233: x_4_3 + x_5_3 + x_0_3 + x_1_3 + x_2_3 + x_6_3 + x_7_3 + x_8_3  = 1
 c234: x_3_4 + x_3_5 + x_3_8 + x_3_1 + x_3_2 + x_3_0 + x_3_6 + x_3_7  = 1
 c235: x_0_4 + x_1_4 + x_2_4 + x_3_4 + x_8_4 + x_5_4 + x_6_4 + x_7_4  = 1
 c236: x_4_0 + x_4_1 + x_4_2 + x_4_3 + x_4_8 + x_4_5 + x_4_6 + x_4_7  = 1
 c237: x_0_5 + x_1_5 + x_2_5 + x_3_5 + x_8_5 + x_4_5 + x_6_5 + x_7_5  = 1
 c238: x_5_0 + x_5_1 + x_5_2 + x_5_3 + x_5_8 + x_5_4 + x_5_6 + x_5_7  = 1
 c239: x_0_6 - x_6_0 - x_6_8 + x_8_6 - x_6_1 + x_1_6 - x_6_2 + x_2_6 - x_6_3
       + x_3_6 - x_6_4 + x_4_6 - x_6_5 + x_5_6 + x_7_6 - x_6_7  = 0
 c240: x_0_7 - x_7_8 - x_7_1 + x_1_7 - x_7_2 + x_2_7 - x_7_3 + x_3_7 - x_7_4
       + x_4_7 - x_7_5 + x_5_7 - x_7_6 + x_6_7 + x_8_7 - x_7_0  = 0
 c241: 9 x_1_2 + u_1 - u_2 <= 8
 c242: 9 x_1_3 + u_1 - u_3 <= 8
 c243: 9 x_1_4 + u_1 - u_4 <= 8
 c244: 9 x_1_5 + u_1 - u_5 <= 8
 c245: 9 x_1_6 + u_1 - u_6 <= 8
 c246: 9 x_1_7 + u_1 - u_7 <= 8
 c247: 9 x_1_8 + u_1 - u_8 <= 8
 c248: 9 x_2_1 - u_1 + u_2 <= 8
 c249: 9 x_2_3 + u_2 - u_3 <= 8
 c250: 9 x_2_4 + u_2 - u_4 <= 8
 c251: 9 x_2_5 + u_2 - u_5 <= 8
 c252: 9 x_2_6 + u_2 - u_6 <= 8
 c253: 9 x_2_7 + u_2 - u_7 <= 8
 c254: 9 x_2_8 + u_2 - u_8 <= 8
 c255: 9 x_3_1 - u_1 + u_3 <= 8
 c256: 9 x_3_2 - u_2 + u_3 <= 8
 c257: 9 x_3_4 + u_3 - u_4 <= 8
 c258: 9 x_3_5 + u_3 - u_5 <= 8
 c259: 9 x_3_6 + u_3 - u_6 <= 8
 c260: 9 x_3_7 + u_3 - u_7 <= 8
 c261: 9 x_3_8 + u_3 - u_8 <= 8
 c262: 9 x_4_1 - u_1 + u_4 <= 8
 c263: 9 x_4_2 - u_2 + u_4 <= 8
 c264: 9 x_4_3 - u_3 + u_4 <= 8
 c265: 9 x_4_5 + u_4 - u_5 <= 8
 c266: 9 x_4_6 + u_4 - u_6 <= 8
 c267: 9 x_4_7 + u_4 - u_7 <= 8
 c268: 9 x_4_8 + u_4 - u_8 <= 8
 c269: 9 x_5_1 - u_1 + u_5 <= 8
 c270: 9 x_5_2 - u_2 + u_5 <= 8
 c271: 9 x_5_3 - u_3 + u_5 <= 8
 c272: 9 x_5_4 - u_4 + u_5 <= 8
 c273: 9 x_5_6 + u_5 - u_6 <= 8
 c274: 9 x_5_7 + u_5 - u_7 <= 8
 c275: 9 x_5_8 + u_5 - u_8 <= 8
 c276: 9 x_6_1 - u_1 + u_6 <= 8
 c277: 9 x_6_2 - u_2 + u_6 <= 8
 c278: 9 x_6_3 - u_3 + u_6 <= 8
 c279: 9 x_6_4 - u_4 + u_6 <= 8
 c280: 9 x_6_5 - u_5 + u_6 <= 8
 c281: 9 x_6_7 + u_6 - u_7 <= 8
 c282: 9 x_6_8 + u_6 - u_8 <= 8
 c283: 9 x_7_1 - u_1 + u_7 <= 8
 c284: 9 x_7_2 - u_2 + u_7 <= 8
 c285: 9 x_7_3 - u_3 + u_7 <= 8
 c286: 9 x_7_4 - u_4 + u_7 <= 8
 c287: 9 x_7_5 - u_5 + u_7 <= 8
 c288: 9 x_7_6 - u_6 + u_7 <= 8
 c289: 9 x_7_8 + u_7 - u_8 <= 8
 c290: 9 x_8_1 - u_1 + u_8 <= 8
 c291: 9 x_8_2 - u_2 + u_8 <= 8
 c292: 9 x_8_3 - u_3 + u_8 <= 8
 c293: 9 x_8_4 - u_4 + u_8 <= 8
 c294: 9 x_8_5 - u_5 + u_8 <= 8
 c295: 9 x_8_6 - u_6 + u_8 <= 8
 c296: 9 x_8_7 - u_7 + u_8 <= 8
 c297: u_0  = 0
 c298: y_a_0  = 100
 c299: y_d_0 - y_a_0  = 0
 c300: - 40 s_z_0_1 - y_d_0 + y_a_1 - 1100 x_0_1 >= -1145.17742799231
 c301: - 40 s_z_0_1 - y_d_0 + y_a_1 + 1100 x_0_1 <= 1054.82257200769
 c302: y_a_1 >= 20
 c303: - y_d_0 + y_a_2 - 1100 x_0_2 >= -1135.05709628592
 c304: - y_d_0 + y_a_2 + 1100 x_0_2 <= 1064.94290371408
 c305: y_a_2 >= 20
 c306: - y_d_0 + y_a_3 - 1100 x_0_3 >= -1135
 c307: - y_d_0 + y_a_3 + 1100 x_0_3 <= 1065
 c308: y_a_3 >= 20
 c309: - 40 s_z_0_4 - y_d_0 + y_a_4 - 1100 x_0_4 >= -1157.00877125496
 c310: - 40 s_z_0_4 - y_d_0 + y_a_4 + 1100 x_0_4 <= 1042.99122874504
 c311: y_a_4 >= 20
 c312: - 40 s_z_0_5 - y_d_0 + y_a_5 - 1100 x_0_5 >= -1155.71355310874
 c313: - 40 s_z_0_5 - y_d_0 + y_a_5 + 1100 x_0_5 <= 1044.28644689126
 c314: y_a_5 >= 20
 c315: - 40 s_z_0_6 - y_d_0 + y_a_6 - 1100 x_0_6 >= -1146.04345773289
 c316: - 40 s_z_0_6 - y_d_0 + y_a_6 + 1100 x_0_6 <= 1053.95654226711
 c317: y_a_6 >= 20
 c318: - y_d_0 + y_a_7 - 1100 x_0_7 >= -1141.77319714841
 c319: - y_d_0 + y_a_7 + 1100 x_0_7 <= 1058.22680285159
 c320: y_a_7 >= 20
 c321: - y_d_0 + y_a_8 - 1100 x_0_8 >= -1100
 c322: - y_d_0 + y_a_8 + 1100 x_0_8 <= 1100
 c323: y_a_8 >= 20
 c324: - 40 s_z_1_0 + y_a_0 - y_d_1 - 1100 x_1_0 >= -1145.17742799231
 c325: - 40 s_z_1_0 + y_a_0 - y_d_1 + 1100 x_1_0 <= 1054.82257200769
 c326: y_a_0 >= 20
 c327: - y_d_1 + y_a_2 - 1100 x_1_2 >= -1110.19803902719
 c328: - y_d_1 + y_a_2 + 1100 x_1_2 <= 1089.80196097281
 c329: y_a_2 >= 20
 c330: - y_d_1 + y_a_3 - 1100 x_1_3 >= -1110.77032961427
 c331: - y_d_1 + y_a_3 + 1100 x_1_3 <= 1089.22967038573
 c332: y_a_3 >= 20
 c333: - 40 s_z_1_4 - y_d_1 + y_a_4 - 1100 x_1_4 >= -1159.16924876995
 c334: - 40 s_z_1_4 - y_d_1 + y_a_4 + 1100 x_1_4 <= 1040.83075123005
 c335: y_a_4 >= 20
 c336: - 40 s_z_1_5 - y_d_1 + y_a_5 - 1100 x_1_5 >= -1154.12023651094
 c337: - 40 s_z_1_5 - y_d_1 + y_a_5 + 1100 x_1_5 <= 1045.87976348906
 c338: y_a_5 >= 20
 c339: - y_d_1 + y_a_6 - 1100 x_1_6 >= -1138.9486841883
 c340: - y_d_1 + y_a_6 + 1100 x_1_6 <= 1061.0513158117
 c341: y_a_6 >= 20
 c342: - y_d_1 + y_a_7 - 1100 x_1_7 >= -1127.7848879789
 c343: - y_d_1 + y_a_7 + 1100 x_1_7 <= 1072.2151120211
 c344: y_a_7 >= 20
 c345: - 40 s_z_1_8 - y_d_1 + y_a_8 - 1100 x_1_8 >= -1145.17742799231
 c346: - 40 s_z_1_8 - y_d_1 + y_a_8 + 1100 x_1_8 <= 1054.82257200769
 c347: y_a_8 >= 20
 c348: y_a_0 - y_d_2 - 1100 x_2_0 >= -1135.05709628592
 c349: y_a_0 - y_d_2 + 1100 x_2_0 <= 1064.94290371408
 c350: y_a_0 >= 20
 c351: y_a_1 - y_d_2 - 1100 x_2_1 >= -1110.19803902719
 c352: y_a_1 - y_d_2 + 1100 x_2_1 <= 1089.80196097281
 c353: y_a_1 >= 20
 c354: - y_d_2 + y_a_3 - 1100 x_2_3 >= -1102
 c355: - y_d_2 + y_a_3 + 1100 x_2_3 <= 1098
 c356: y_a_3 >= 20
 c357: - 40 s_z_2_4 - y_d_2 + y_a_4 - 1100 x_2_4 >= -1156.64803615307
 c358: - 40 s_z_2_4 - y_d_2 + y_a_4 + 1100 x_2_4 <= 1043.35196384693
 c359: y_a_4 >= 20
 c360: - 40 s_z_2_5 - y_d_2 + y_a_5 - 1100 x_2_5 >= -1152.20153254455
 c361: - 40 s_z_2_5 - y_d_2 + y_a_5 + 1100 x_2_5 <= 1047.79846745545
 c362: y_a_5 >= 20
 c363: - y_d_2 + y_a_6 - 1100 x_2_6 >= -1137.10795063056
 c364: - y_d_2 + y_a_6 + 1100 x_2_6 <= 1062.89204936944
 c365: y_a_6 >= 20
 c366: - y_d_2 + y_a_7 - 1100 x_2_7 >= -1126.30589287593
 c367: - y_d_2 + y_a_7 + 1100 x_2_7 <= 1073.69410712407
 c368: y_a_7 >= 20
 c369: - y_d_2 + y_a_8 - 1100 x_2_8 >= -1135.05709628592
 c370: - y_d_2 + y_a_8 + 1100 x_2_8 <= 1064.94290371408
 c371: y_a_8 >= 20
 c372: y_a_0 - y_d_3 - 1100 x_3_0 >= -1135
 c373: y_a_0 - y_d_3 + 1100 x_3_0 <= 1065
 c374: y_a_0 >= 20
 c375: y_a_1 - y_d_3 - 1100 x_3_1 >= -1110.77032961427
 c376: y_a_1 - y_d_3 + 1100 x_3_1 <= 1089.22967038573
 c377: y_a_1 >= 20
 c378: y_a_2 - y_d_3 - 1100 x_3_2 >= -1102
 c379: y_a_2 - y_d_3 + 1100 x_3_2 <= 1098
 c380: y_a_2 >= 20
 c381: - 40 s_z_3_4 - y_d_3 + y_a_4 - 1100 x_3_4 >= -1158.5234995536
 c382: - 40 s_z_3_4 - y_d_3 + y_a_4 + 1100 x_3_4 <= 1041.4765004464
 c383: y_a_4 >= 20
 c384: - 40 s_z_3_5 - y_d_3 + y_a_5 - 1100 x_3_5 >= -1154.12023651094
 c385: - 40 s_z_3_5 - y_d_3 + y_a_5 + 1100 x_3_5 <= 1045.87976348906
 c386: y_a_5 >= 20
 c387: - y_d_3 + y_a_6 - 1100 x_3_6 >= -1139.05124837953
 c388: - y_d_3 + y_a_6 + 1100 x_3_6 <= 1060.94875162047
 c389: y_a_6 >= 20
 c390: - y_d_3 + y_a_7 - 1100 x_3_7 >= -1128.28427124746
 c391: - y_d_3 + y_a_7 + 1100 x_3_7 <= 1071.71572875254
 c392: y_a_7 >= 20
 c393: - y_d_3 + y_a_8 - 1100 x_3_8 >= -1135
 c394: - y_d_3 + y_a_8 + 1100 x_3_8 <= 1065
 c395: y_a_8 >= 20
 c396: - 40 s_z_4_0 + y_a_0 - y_d_4 - 1100 x_4_0 >= -1157.00877125496
 c397: - 40 s_z_4_0 + y_a_0 - y_d_4 + 1100 x_4_0 <= 1042.99122874504
 c398: y_a_0 >= 20
 c399: - 40 s_z_4_1 + y_a_1 - y_d_4 - 1100 x_4_1 >= -1159.16924876995
 c400: - 40 s_z_4_1 + y_a_1 - y_d_4 + 1100 x_4_1 <= 1040.83075123005
 c401: y_a_1 >= 20
 c402: - 40 s_z_4_2 + y_a_2 - y_d_4 - 1100 x_4_2 >= -1156.64803615307
 c403: - 40 s_z_4_2 + y_a_2 - y_d_4 + 1100 x_4_2 <= 1043.35196384693
 c404: y_a_2 >= 20
 c405: - 40 s_z_4_3 + y_a_3 - y_d_4 - 1100 x_4_3 >= -1158.5234995536
 c406: - 40 s_z_4_3 + y_a_3 - y_d_4 + 1100 x_4_3 <= 1041.4765004464
 c407: y_a_3 >= 20
 c408: - y_d_4 + y_a_5 - 1100 x_4_5 >= -1105.83095189485
 c409: - y_d_4 + y_a_5 + 1100 x_4_5 <= 1094.16904810515
 c410: y_a_5 >= 20
 c411: - y_d_4 + y_a_6 - 1100 x_4_6 >= -1120.24845673132
 c412: - y_d_4 + y_a_6 + 1100 x_4_6 <= 1079.75154326868
 c413: y_a_6 >= 20
 c414: - y_d_4 + y_a_7 - 1100 x_4_7 >= -1131.38470965295
 c415: - y_d_4 + y_a_7 + 1100 x_4_7 <= 1068.61529034705
 c416: y_a_7 >= 20
 c417: - 40 s_z_4_8 - y_d_4 + y_a_8 - 1100 x_4_8 >= -1157.00877125496
 c418: - 40 s_z_4_8 - y_d_4 + y_a_8 + 1100 x_4_8 <= 1042.99122874504
 c419: y_a_8 >= 20
 c420: - 40 s_z_5_0 + y_a_0 - y_d_5 - 1100 x_5_0 >= -1155.71355310874
 c421: - 40 s_z_5_0 + y_a_0 - y_d_5 + 1100 x_5_0 <= 1044.28644689126
 c422: y_a_0 >= 20
 c423: - 40 s_z_5_1 + y_a_1 - y_d_5 - 1100 x_5_1 >= -1154.12023651094
 c424: - 40 s_z_5_1 + y_a_1 - y_d_5 + 1100 x_5_1 <= 1045.87976348906
 c425: y_a_1 >= 20
 c426: - 40 s_z_5_2 + y_a_2 - y_d_5 - 1100 x_5_2 >= -1152.20153254455
 c427: - 40 s_z_5_2 + y_a_2 - y_d_5 + 1100 x_5_2 <= 1047.79846745545
 c428: y_a_2 >= 20
 c429: - 40 s_z_5_3 + y_a_3 - y_d_5 - 1100 x_5_3 >= -1154.12023651094
 c430: - 40 s_z_5_3 + y_a_3 - y_d_5 + 1100 x_5_3 <= 1045.87976348906
 c431: y_a_3 >= 20
 c432: y_a_4 - y_d_5 - 1100 x_5_4 >= -1105.83095189485
 c433: y_a_4 - y_d_5 + 1100 x_5_4 <= 1094.16904810515
 c434: y_a_4 >= 20
 c435: - y_d_5 + y_a_6 - 1100 x_5_6 >= -1115.23154621173
 c436: - y_d_5 + y_a_6 + 1100 x_5_6 <= 1084.76845378827
 c437: y_a_6 >= 20
 c438: - y_d_5 + y_a_7 - 1100 x_5_7 >= -1126.40075756489
 c439: - y_d_5 + y_a_7 + 1100 x_5_7 <= 1073.59924243511
 c440: y_a_7 >= 20
 c441: - 40 s_z_5_8 - y_d_5 + y_a_8 - 1100 x_5_8 >= -1155.71355310874
 c442: - 40 s_z_5_8 - y_d_5 + y_a_8 + 1100 x_5_8 <= 1044.28644689126
 c443: y_a_8 >= 20
 c444: - 40 s_z_6_0 + y_a_0 - y_d_6 - 1100 x_6_0 >= -1146.04345773289
 c445: - 40 s_z_6_0 + y_a_0 - y_d_6 + 1100 x_6_0 <= 1053.95654226711
 c446: y_a_0 >= 20
 c447: y_a_1 - y_d_6 - 1100 x_6_1 >= -1138.9486841883
 c448: y_a_1 - y_d_6 + 1100 x_6_1 <= 1061.0513158117
 c449: y_a_1 >= 20
 c450: y_a_2 - y_d_6 - 1100 x_6_2 >= -1137.10795063056
 c451: y_a_2 - y_d_6 + 1100 x_6_2 <= 1062.89204936944
 c452: y_a_2 >= 20
 c453: y_a_3 - y_d_6 - 1100 x_6_3 >= -1139.05124837953
 c454: y_a_3 - y_d_6 + 1100 x_6_3 <= 1060.94875162047
 c455: y_a_3 >= 20
 c456: y_a_4 - y_d_6 - 1100 x_6_4 >= -1120.24845673132
 c457: y_a_4 - y_d_6 + 1100 x_6_4 <= 1079.75154326868
 c458: y_a_4 >= 20
 c459: y_a_5 - y_d_6 - 1100 x_6_5 >= -1115.23154621173
 c460: y_a_5 - y_d_6 + 1100 x_6_5 <= 1084.76845378827
 c461: y_a_5 >= 20
 c462: - y_d_6 + y_a_7 - 1100 x_6_7 >= -1111.1803398875
 c463: - y_d_6 + y_a_7 + 1100 x_6_7 <= 1088.8196601125
 c464: y_a_7 >= 20
 c465: - 40 s_z_6_8 - y_d_6 + y_a_8 - 1100 x_6_8 >= -1146.04345773289
 c466: - 40 s_z_6_8 - y_d_6 + y_a_8 + 1100 x_6_8 <= 1053.95654226711
 c467: y_a_8 >= 20
 c468: y_a_0 - y_d_7 - 1100 x_7_0 >= -1141.77319714841
 c469: y_a_0 - y_d_7 + 1100 x_7_0 <= 1058.22680285159
 c470: y_a_0 >= 20
 c471: y_a_1 - y_d_7 - 1100 x_7_1 >= -1127.7848879789
 c472: y_a_1 - y_d_7 + 1100 x_7_1 <= 1072.2151120211
 c473: y_a_1 >= 20
 c474: y_a_2 - y_d_7 - 1100 x_7_2 >= -1126.30589287593
 c475: y_a_2 - y_d_7 + 1100 x_7_2 <= 1073.69410712407
 c476: y_a_2 >= 20
 c477: y_a_3 - y_d_7 - 1100 x_7_3 >= -1128.28427124746
 c478: y_a_3 - y_d_7 + 1100 x_7_3 <= 1071.71572875254
 c479: y_a_3 >= 20
 c480: y_a_4 - y_d_7 - 1100 x_7_4 >= -1131.38470965295
 c481: y_a_4 - y_d_7 + 1100 x_7_4 <= 1068.61529034705
 c482: y_a_4 >= 20
 c483: y_a_5 - y_d_7 - 1100 x_7_5 >= -1126.40075756489
 c484: y_a_5 - y_d_7 + 1100 x_7_5 <= 1073.59924243511
 c485: y_a_5 >= 20
 c486: y_a_6 - y_d_7 - 1100 x_7_6 >= -1111.1803398875
 c487: y_a_6 - y_d_7 + 1100 x_7_6 <= 1088.8196601125
 c488: y_a_6 >= 20
 c489: - y_d_7 + y_a_8 - 1100 x_7_8 >= -1141.77319714841
 c490: - y_d_7 + y_a_8 + 1100 x_7_8 <= 1058.22680285159
 c491: y_a_8 >= 20
 c492: y_a_0 - y_d_8 - 1100 x_8_0 >= -1100
 c493: y_a_0 - y_d_8 + 1100 x_8_0 <= 1100
 c494: y_a_0 >= 20
 c495: - 40 s_z_8_1 + y_a_1 - y_d_8 - 1100 x_8_1 >= -1145.17742799231
 c496: - 40 s_z_8_1 + y_a_1 - y_d_8 + 1100 x_8_1 <= 1054.82257200769
 c497: y_a_1 >= 20
 c498: y_a_2 - y_d_8 - 1100 x_8_2 >= -1135.05709628592
 c499: y_a_2 - y_d_8 + 1100 x_8_2 <= 1064.94290371408
 c500: y_a_2 >= 20
 c501: y_a_3 - y_d_8 - 1100 x_8_3 >= -1135
 c502: y_a_3 - y_d_8 + 1100 x_8_3 <= 1065
 c503: y_a_3 >= 20
 c504: - 40 s_z_8_4 + y_a_4 - y_d_8 - 1100 x_8_4 >= -1157.00877125496
 c505: - 40 s_z_8_4 + y_a_4 - y_d_8 + 1100 x_8_4 <= 1042.99122874504
 c506: y_a_4 >= 20
 c507: - 40 s_z_8_5 + y_a_5 - y_d_8 - 1100 x_8_5 >= -1155.71355310874
 c508: - 40 s_z_8_5 + y_a_5 - y_d_8 + 1100 x_8_5 <= 1044.28644689126
 c509: y_a_5 >= 20
 c510: - 40 s_z_8_6 + y_a_6 - y_d_8 - 1100 x_8_6 >= -1146.04345773289
 c511: - 40 s_z_8_6 + y_a_6 - y_d_8 + 1100 x_8_6 <= 1053.95654226711
 c512: y_a_6 >= 20
 c513: y_a_7 - y_d_8 - 1100 x_8_7 >= -1141.77319714841
 c514: y_a_7 - y_d_8 + 1100 x_8_7 <= 1058.22680285159
 c515: y_a_7 >= 20
 c516: t_0  = 0
 c517: s_0_1 - 1.12943569980765 x_0_1 >= 0
 c518: s_0_1 + 995.482257200769 x_0_1 <= 1000
 c519: - s_0_1 - 1000 x_0_1 - t_0 + t_1 >= -1000
 c520: - s_0_1 + 1000 x_0_1 - t_0 + t_1 <= 1000
 c521: - 0.876427407147905 x_0_2 + s_0_2 >= 0
 c522: 996.494290371408 x_0_2 + s_0_2 <= 1000
 c523: - 1000 x_0_2 - t_0 - s_0_2 + t_2 >= -1000
 c524: 1000 x_0_2 - t_0 - s_0_2 + t_2 <= 1000
 c525: - 0.875 x_0_3 + s_0_3 >= 0
 c526: 996.5 x_0_3 + s_0_3 <= 1000
 c527: - 1000 x_0_3 - t_0 - s_0_3 + t_3 >= -1000
 c528: 1000 x_0_3 - t_0 - s_0_3 + t_3 <= 1000
 c529: s_0_4 - 1.42521928137392 x_0_4 >= 0
 c530: s_0_4 + 994.299122874504 x_0_4 <= 1000
 c531: - s_0_4 - 1000 x_0_4 - t_0 + t_4 >= -1000
 c532: - s_0_4 + 1000 x_0_4 - t_0 + t_4 <= 1000
 c533: s_0_5 - 1.39283882771841 x_0_5 >= 0
 c534: s_0_5 + 994.428644689126 x_0_5 <= 1000
 c535: - s_0_5 - 1000 x_0_5 - t_0 + t_5 >= -1000
 c536: - s_0_5 + 1000 x_0_5 - t_0 + t_5 <= 1000
 c537: s_0_6 - 1.15108644332213 x_0_6 >= 0
 c538: s_0_6 + 995.395654226711 x_0_6 <= 1000
 c539: - s_0_6 - 1000 x_0_6 - t_0 + t_6 >= -1000
 c540: - s_0_6 + 1000 x_0_6 - t_0 + t_6 <= 1000
 c541: - 1.04432992871027 x_0_7 + s_0_7 >= 0
 c542: 995.822680285159 x_0_7 + s_0_7 <= 1000
 c543: - 1000 x_0_7 - t_0 - s_0_7 + t_7 >= -1000
 c544: 1000 x_0_7 - t_0 - s_0_7 + t_7 <= 1000
 c545: s_0_8 >= 0
 c546: 1000 x_0_8 + s_0_8 <= 1000
 c547: t_8 - 1000 x_0_8 - t_0 - s_0_8 >= -1000
 c548: t_8 + 1000 x_0_8 - t_0 - s_0_8 <= 1000
 c549: s_1_0 - 1.12943569980765 x_1_0 >= 0
 c550: s_1_0 + 995.482257200769 x_1_0 <= 1000
 c551: - s_1_0 - 1000 x_1_0 + t_0 - t_1 >= -990
 c552: - s_1_0 + 1000 x_1_0 + t_0 - t_1 <= 1010
 c553: - 0.254950975679639 x_1_2 + s_1_2 >= 0
 c554: 998.980196097281 x_1_2 + s_1_2 <= 1000
 c555: - 1000 x_1_2 - t_1 + t_2 - s_1_2 >= -990
 c556: 1000 x_1_2 - t_1 + t_2 - s_1_2 <= 1010
 c557: - 0.269258240356725 x_1_3 + s_1_3 >= 0
 c558: 998.922967038573 x_1_3 + s_1_3 <= 1000
 c559: - 1000 x_1_3 - t_1 + t_3 - s_1_3 >= -990
 c560: 1000 x_1_3 - t_1 + t_3 - s_1_3 <= 1010
 c561: s_1_4 - 1.4792312192487 x_1_4 >= 0
 c562: s_1_4 + 994.083075123005 x_1_4 <= 1000
 c563: - s_1_4 - 1000 x_1_4 - t_1 + t_4 >= -990
 c564: - s_1_4 + 1000 x_1_4 - t_1 + t_4 <= 1010
 c565: s_1_5 - 1.35300591277348 x_1_5 >= 0
 c566: s_1_5 + 994.587976348906 x_1_5 <= 1000
 c567: - s_1_5 - 1000 x_1_5 - t_1 + t_5 >= -990
 c568: - s_1_5 + 1000 x_1_5 - t_1 + t_5 <= 1010
 c569: - 0.973717104707522 x_1_6 + s_1_6 >= 0
 c570: 996.10513158117 x_1_6 + s_1_6 <= 1000
 c571: - 1000 x_1_6 - t_1 + t_6 - s_1_6 >= -990
 c572: 1000 x_1_6 - t_1 + t_6 - s_1_6 <= 1010
 c573: - 0.69462219947249 x_1_7 + s_1_7 >= 0
 c574: 997.22151120211 x_1_7 + s_1_7 <= 1000
 c575: - 1000 x_1_7 - t_1 + t_7 - s_1_7 >= -990
 c576: 1000 x_1_7 - t_1 + t_7 - s_1_7 <= 1010
 c577: s_1_8 - 1.12943569980765 x_1_8 >= 0
 c578: s_1_8 + 995.482257200769 x_1_8 <= 1000
 c579: t_8 - s_1_8 - 1000 x_1_8 - t_1 >= -990
 c580: t_8 - s_1_8 + 1000 x_1_8 - t_1 <= 1010
 c581: - 0.876427407147905 x_2_0 + s_2_0 >= 0
 c582: 996.494290371408 x_2_0 + s_2_0 <= 1000
 c583: - 1000 x_2_0 + t_0 - t_2 - s_2_0 >= -990
 c584: 1000 x_2_0 + t_0 - t_2 - s_2_0 <= 1010
 c585: - 0.254950975679639 x_2_1 + s_2_1 >= 0
 c586: 998.980196097281 x_2_1 + s_2_1 <= 1000
 c587: - 1000 x_2_1 + t_1 - t_2 - s_2_1 >= -990
 c588: 1000 x_2_1 + t_1 - t_2 - s_2_1 <= 1010
 c589: - 0.05 x_2_3 + s_2_3 >= 0
 c590: 999.8 x_2_3 + s_2_3 <= 1000
 c591: - 1000 x_2_3 - t_2 + t_3 - s_2_3 >= -990
 c592: 1000 x_2_3 - t_2 + t_3 - s_2_3 <= 1010
 c593: s_2_4 - 1.41620090382685 x_2_4 >= 0
 c594: s_2_4 + 994.335196384693 x_2_4 <= 1000
 c595: - s_2_4 - 1000 x_2_4 - t_2 + t_4 >= -990
 c596: - s_2_4 + 1000 x_2_4 - t_2 + t_4 <= 1010
 c597: s_2_5 - 1.30503831361382 x_2_5 >= 0
 c598: s_2_5 + 994.779846745545 x_2_5 <= 1000
 c599: - s_2_5 - 1000 x_2_5 - t_2 + t_5 >= -990
 c600: - s_2_5 + 1000 x_2_5 - t_2 + t_5 <= 1010
 c601: - 0.927698765763974 x_2_6 + s_2_6 >= 0
 c602: 996.289204936944 x_2_6 + s_2_6 <= 1000
 c603: - 1000 x_2_6 - t_2 + t_6 - s_2_6 >= -990
 c604: 1000 x_2_6 - t_2 + t_6 - s_2_6 <= 1010
 c605: - 0.657647321898295 x_2_7 + s_2_7 >= 0
 c606: 997.369410712407 x_2_7 + s_2_7 <= 1000
 c607: - 1000 x_2_7 - t_2 + t_7 - s_2_7 >= -990
 c608: 1000 x_2_7 - t_2 + t_7 - s_2_7 <= 1010
 c609: - 0.876427407147905 x_2_8 + s_2_8 >= 0
 c610: 996.494290371408 x_2_8 + s_2_8 <= 1000
 c611: t_8 - 1000 x_2_8 - t_2 - s_2_8 >= -990
 c612: t_8 + 1000 x_2_8 - t_2 - s_2_8 <= 1010
 c613: - 0.875 x_3_0 + s_3_0 >= 0
 c614: 996.5 x_3_0 + s_3_0 <= 1000
 c615: - 1000 x_3_0 + t_0 - t_3 - s_3_0 >= -990
 c616: 1000 x_3_0 + t_0 - t_3 - s_3_0 <= 1010
 c617: - 0.269258240356725 x_3_1 + s_3_1 >= 0
 c618: 998.922967038573 x_3_1 + s_3_1 <= 1000
 c619: - 1000 x_3_1 + t_1 - t_3 - s_3_1 >= -990
 c620: 1000 x_3_1 + t_1 - t_3 - s_3_1 <= 1010
 c621: - 0.05 x_3_2 + s_3_2 >= 0
 c622: 999.8 x_3_2 + s_3_2 <= 1000
 c623: - 1000 x_3_2 + t_2 - t_3 - s_3_2 >= -990
 c624: 1000 x_3_2 + t_2 - t_3 - s_3_2 <= 1010
 c625: s_3_4 - 1.46308748883995 x_3_4 >= 0
 c626: s_3_4 + 994.14765004464 x_3_4 <= 1000
 c627: - s_3_4 - 1000 x_3_4 - t_3 + t_4 >= -990
 c628: - s_3_4 + 1000 x_3_4 - t_3 + t_4 <= 1010
 c629: s_3_5 - 1.35300591277348 x_3_5 >= 0
 c630: s_3_5 + 994.587976348906 x_3_5 <= 1000
 c631: - s_3_5 - 1000 x_3_5 - t_3 + t_5 >= -990
 c632: - s_3_5 + 1000 x_3_5 - t_3 + t_5 <= 1010
 c633: - 0.976281209488332 x_3_6 + s_3_6 >= 0
 c634: 996.094875162047 x_3_6 + s_3_6 <= 1000
 c635: - 1000 x_3_6 - t_3 + t_6 - s_3_6 >= -990
 c636: 1000 x_3_6 - t_3 + t_6 - s_3_6 <= 1010
 c637: - 0.707106781186548 x_3_7 + s_3_7 >= 0
 c638: 997.171572875254 x_3_7 + s_3_7 <= 1000
 c639: - 1000 x_3_7 - t_3 + t_7 - s_3_7 >= -990
 c640: 1000 x_3_7 - t_3 + t_7 - s_3_7 <= 1010
 c641: - 0.875 x_3_8 + s_3_8 >= 0
 c642: 996.5 x_3_8 + s_3_8 <= 1000
 c643: t_8 - 1000 x_3_8 - t_3 - s_3_8 >= -990
 c644: t_8 + 1000 x_3_8 - t_3 - s_3_8 <= 1010
 c645: s_4_0 - 1.42521928137392 x_4_0 >= 0
 c646: s_4_0 + 994.299122874504 x_4_0 <= 1000
 c647: - s_4_0 - 1000 x_4_0 + t_0 - t_4 >= -990
 c648: - s_4_0 + 1000 x_4_0 + t_0 - t_4 <= 1010
 c649: s_4_1 - 1.4792312192487 x_4_1 >= 0
 c650: s_4_1 + 994.083075123005 x_4_1 <= 1000
 c651: - s_4_1 - 1000 x_4_1 + t_1 - t_4 >= -990
 c652: - s_4_1 + 1000 x_4_1 + t_1 - t_4 <= 1010
 c653: s_4_2 - 1.41620090382685 x_4_2 >= 0
 c654: s_4_2 + 994.335196384693 x_4_2 <= 1000
 c655: - s_4_2 - 1000 x_4_2 + t_2 - t_4 >= -990
 c656: - s_4_2 + 1000 x_4_2 + t_2 - t_4 <= 1010
 c657: s_4_3 - 1.46308748883995 x_4_3 >= 0
 c658: s_4_3 + 994.14765004464 x_4_3 <= 1000
 c659: - s_4_3 - 1000 x_4_3 + t_3 - t_4 >= -990
 c660: - s_4_3 + 1000 x_4_3 + t_3 - t_4 <= 1010
 c661: - 0.145773797371133 x_4_5 + s_4_5 >= 0
 c662: 999.416904810515 x_4_5 + s_4_5 <= 1000
 c663: - 1000 x_4_5 - t_4 + t_5 - s_4_5 >= -990
 c664: 1000 x_4_5 - t_4 + t_5 - s_4_5 <= 1010
 c665: - 0.506211418282915 x_4_6 + s_4_6 >= 0
 c666: 997.975154326868 x_4_6 + s_4_6 <= 1000
 c667: - 1000 x_4_6 - t_4 + t_6 - s_4_6 >= -990
 c668: 1000 x_4_6 - t_4 + t_6 - s_4_6 <= 1010
 c669: - 0.784617741323761 x_4_7 + s_4_7 >= 0
 c670: 996.861529034705 x_4_7 + s_4_7 <= 1000
 c671: - 1000 x_4_7 - t_4 + t_7 - s_4_7 >= -990
 c672: 1000 x_4_7 - t_4 + t_7 - s_4_7 <= 1010
 c673: s_4_8 - 1.42521928137392 x_4_8 >= 0
 c674: s_4_8 + 994.299122874504 x_4_8 <= 1000
 c675: t_8 - s_4_8 - 1000 x_4_8 - t_4 >= -990
 c676: t_8 - s_4_8 + 1000 x_4_8 - t_4 <= 1010
 c677: s_5_0 - 1.39283882771841 x_5_0 >= 0
 c678: s_5_0 + 994.428644689126 x_5_0 <= 1000
 c679: - s_5_0 - 1000 x_5_0 + t_0 - t_5 >= -990
 c680: - s_5_0 + 1000 x_5_0 + t_0 - t_5 <= 1010
 c681: s_5_1 - 1.35300591277348 x_5_1 >= 0
 c682: s_5_1 + 994.587976348906 x_5_1 <= 1000
 c683: - s_5_1 - 1000 x_5_1 + t_1 - t_5 >= -990
 c684: - s_5_1 + 1000 x_5_1 + t_1 - t_5 <= 1010
 c685: s_5_2 - 1.30503831361382 x_5_2 >= 0
 c686: s_5_2 + 994.779846745545 x_5_2 <= 1000
 c687: - s_5_2 - 1000 x_5_2 + t_2 - t_5 >= -990
 c688: - s_5_2 + 1000 x_5_2 + t_2 - t_5 <= 1010
 c689: s_5_3 - 1.35300591277348 x_5_3 >= 0
 c690: s_5_3 + 994.587976348906 x_5_3 <= 1000
 c691: - s_5_3 - 1000 x_5_3 + t_3 - t_5 >= -990
 c692: - s_5_3 + 1000 x_5_3 + t_3 - t_5 <= 1010
 c693: - 0.145773797371133 x_5_4 + s_5_4 >= 0
 c694: 999.416904810515 x_5_4 + s_5_4 <= 1000
 c695: - 1000 x_5_4 + t_4 - t_5 - s_5_4 >= -990
 c696: 1000 x_5_4 + t_4 - t_5 - s_5_4 <= 1010
 c697: - 0.380788655293195 x_5_6 + s_5_6 >= 0
 c698: 998.476845378827 x_5_6 + s_5_6 <= 1000
 c699: - 1000 x_5_6 - t_5 + t_6 - s_5_6 >= -990
 c700: 1000 x_5_6 - t_5 + t_6 - s_5_6 <= 1010
 c701: - 0.660018939122204 x_5_7 + s_5_7 >= 0
 c702: 997.359924243511 x_5_7 + s_5_7 <= 1000
 c703: - 1000 x_5_7 - t_5 + t_7 - s_5_7 >= -990
 c704: 1000 x_5_7 - t_5 + t_7 - s_5_7 <= 1010
 c705: s_5_8 - 1.39283882771841 x_5_8 >= 0
 c706: s_5_8 + 994.428644689126 x_5_8 <= 1000
 c707: t_8 - s_5_8 - 1000 x_5_8 - t_5 >= -990
 c708: t_8 - s_5_8 + 1000 x_5_8 - t_5 <= 1010
 c709: s_6_0 - 1.15108644332213 x_6_0 >= 0
 c710: s_6_0 + 995.395654226711 x_6_0 <= 1000
 c711: - phi_6 - s_6_0 - 1000 x_6_0 + t_0 - t_6 >= -1000
 c712: - phi_6 - s_6_0 + 1000 x_6_0 + t_0 - t_6 <= 1000
 c713: - 0.973717104707522 x_6_1 + s_6_1 >= 0
 c714: 996.10513158117 x_6_1 + s_6_1 <= 1000
 c715: - phi_6 - 1000 x_6_1 + t_1 - t_6 - s_6_1 >= -1000
 c716: - phi_6 + 1000 x_6_1 + t_1 - t_6 - s_6_1 <= 1000
 c717: - 0.927698765763974 x_6_2 + s_6_2 >= 0
 c718: 996.289204936944 x_6_2 + s_6_2 <= 1000
 c719: - phi_6 - 1000 x_6_2 + t_2 - t_6 - s_6_2 >= -1000
 c720: - phi_6 + 1000 x_6_2 + t_2 - t_6 - s_6_2 <= 1000
 c721: - 0.976281209488332 x_6_3 + s_6_3 >= 0
 c722: 996.094875162047 x_6_3 + s_6_3 <= 1000
 c723: - phi_6 - 1000 x_6_3 + t_3 - t_6 - s_6_3 >= -1000
 c724: - phi_6 + 1000 x_6_3 + t_3 - t_6 - s_6_3 <= 1000
 c725: - 0.506211418282915 x_6_4 + s_6_4 >= 0
 c726: 997.975154326868 x_6_4 + s_6_4 <= 1000
 c727: - phi_6 - 1000 x_6_4 + t_4 - t_6 - s_6_4 >= -1000
 c728: - phi_6 + 1000 x_6_4 + t_4 - t_6 - s_6_4 <= 1000
 c729: - 0.380788655293195 x_6_5 + s_6_5 >= 0
 c730: 998.476845378827 x_6_5 + s_6_5 <= 1000
 c731: - phi_6 - 1000 x_6_5 + t_5 - t_6 - s_6_5 >= -1000
 c732: - phi_6 + 1000 x_6_5 + t_5 - t_6 - s_6_5 <= 1000
 c733: - 0.279508497187474 x_6_7 + s_6_7 >= 0
 c734: 998.88196601125 x_6_7 + s_6_7 <= 1000
 c735: - phi_6 - 1000 x_6_7 - t_6 + t_7 - s_6_7 >= -1000
 c736: - phi_6 + 1000 x_6_7 - t_6 + t_7 - s_6_7 <= 1000
 c737: s_6_8 - 1.15108644332213 x_6_8 >= 0
 c738: s_6_8 + 995.395654226711 x_6_8 <= 1000
 c739: t_8 - phi_6 - s_6_8 - 1000 x_6_8 - t_6 >= -1000
 c740: t_8 - phi_6 - s_6_8 + 1000 x_6_8 - t_6 <= 1000
 c741: - 1.04432992871027 x_7_0 + s_7_0 >= 0
 c742: 995.822680285159 x_7_0 + s_7_0 <= 1000
 c743: - phi_7 - 1000 x_7_0 + t_0 - t_7 - s_7_0 >= -1000
 c744: - phi_7 + 1000 x_7_0 + t_0 - t_7 - s_7_0 <= 1000
 c745: - 0.69462219947249 x_7_1 + s_7_1 >= 0
 c746: 997.22151120211 x_7_1 + s_7_1 <= 1000
 c747: - phi_7 - 1000 x_7_1 + t_1 - t_7 - s_7_1 >= -1000
 c748: - phi_7 + 1000 x_7_1 + t_1 - t_7 - s_7_1 <= 1000
 c749: - 0.657647321898295 x_7_2 + s_7_2 >= 0
 c750: 997.369410712407 x_7_2 + s_7_2 <= 1000
 c751: - phi_7 - 1000 x_7_2 + t_2 - t_7 - s_7_2 >= -1000
 c752: - phi_7 + 1000 x_7_2 + t_2 - t_7 - s_7_2 <= 1000
 c753: - 0.707106781186548 x_7_3 + s_7_3 >= 0
 c754: 997.171572875254 x_7_3 + s_7_3 <= 1000
 c755: - phi_7 - 1000 x_7_3 + t_3 - t_7 - s_7_3 >= -1000
 c756: - phi_7 + 1000 x_7_3 + t_3 - t_7 - s_7_3 <= 1000
 c757: - 0.784617741323761 x_7_4 + s_7_4 >= 0
 c758: 996.861529034705 x_7_4 + s_7_4 <= 1000
 c759: - phi_7 - 1000 x_7_4 + t_4 - t_7 - s_7_4 >= -1000
 c760: - phi_7 + 1000 x_7_4 + t_4 - t_7 - s_7_4 <= 1000
 c761: - 0.660018939122204 x_7_5 + s_7_5 >= 0
 c762: 997.359924243511 x_7_5 + s_7_5 <= 1000
 c763: - phi_7 - 1000 x_7_5 + t_5 - t_7 - s_7_5 >= -1000
 c764: - phi_7 + 1000 x_7_5 + t_5 - t_7 - s_7_5 <= 1000
 c765: - 0.279508497187474 x_7_6 + s_7_6 >= 0
 c766: 998.88196601125 x_7_6 + s_7_6 <= 1000
 c767: - phi_7 - 1000 x_7_6 + t_6 - t_7 - s_7_6 >= -1000
 c768: - phi_7 + 1000 x_7_6 + t_6 - t_7 - s_7_6 <= 1000
 c769: - 1.04432992871027 x_7_8 + s_7_8 >= 0
 c770: 995.822680285159 x_7_8 + s_7_8 <= 1000
 c771: t_8 - phi_7 - 1000 x_7_8 - t_7 - s_7_8 >= -1000
 c772: t_8 - phi_7 + 1000 x_7_8 - t_7 - s_7_8 <= 1000
 c773: s_8_0 >= 0
 c774: 1000 x_8_0 + s_8_0 <= 1000
 c775: - t_8 - 1000 x_8_0 + t_0 - s_8_0 >= -1000
 c776: - t_8 + 1000 x_8_0 + t_0 - s_8_0 <= 1000
 c777: s_8_1 - 1.12943569980765 x_8_1 >= 0
 c778: s_8_1 + 995.482257200769 x_8_1 <= 1000
 c779: - t_8 - s_8_1 - 1000 x_8_1 + t_1 >= -1000
 c780: - t_8 - s_8_1 + 1000 x_8_1 + t_1 <= 1000
 c781: - 0.876427407147905 x_8_2 + s_8_2 >= 0
 c782: 996.494290371408 x_8_2 + s_8_2 <= 1000
 c783: - t_8 - 1000 x_8_2 + t_2 - s_8_2 >= -1000
 c784: - t_8 + 1000 x_8_2 + t_2 - s_8_2 <= 1000
 c785: - 0.875 x_8_3 + s_8_3 >= 0
 c786: 996.5 x_8_3 + s_8_3 <= 1000
 c787: - t_8 - 1000 x_8_3 + t_3 - s_8_3 >= -1000
 c788: - t_8 + 1000 x_8_3 + t_3 - s_8_3 <= 1000
 c789: s_8_4 - 1.42521928137392 x_8_4 >= 0
 c790: s_8_4 + 994.299122874504 x_8_4 <= 1000
 c791: - t_8 - s_8_4 - 1000 x_8_4 + t_4 >= -1000
 c792: - t_8 - s_8_4 + 1000 x_8_4 + t_4 <= 1000
 c793: s_8_5 - 1.39283882771841 x_8_5 >= 0
 c794: s_8_5 + 994.428644689126 x_8_5 <= 1000
 c795: - t_8 - s_8_5 - 1000 x_8_5 + t_5 >= -1000
 c796: - t_8 - s_8_5 + 1000 x_8_5 + t_5 <= 1000
 c797: s_8_6 - 1.15108644332213 x_8_6 >= 0
 c798: s_8_6 + 995.395654226711 x_8_6 <= 1000
 c799: - t_8 - s_8_6 - 1000 x_8_6 + t_6 >= -1000
 c800: - t_8 - s_8_6 + 1000 x_8_6 + t_6 <= 1000
 c801: - 1.04432992871027 x_8_7 + s_8_7 >= 0
 c802: 995.822680285159 x_8_7 + s_8_7 <= 1000
 c803: - t_8 - 1000 x_8_7 + t_7 - s_8_7 >= -1000
 c804: - t_8 + 1000 x_8_7 + t_7 - s_8_7 <= 1000
 c805: w_6_0 + w_6_1 - x_0_6 - x_8_6 - x_1_6 - x_2_6 - x_3_6 - x_4_6 - x_5_6
       - x_7_6 <= 0
 c806: w_7_0 + w_7_1 - x_0_7 - x_1_7 - x_2_7 - x_3_7 - x_4_7 - x_5_7 - x_6_7
       - x_8_7 <= 0
Bounds
 20 <= y_d_0 <= 100
 20 <= y_a_0 <= 100
 20 <= y_d_1 <= 100
 20 <= y_a_1 <= 100
 20 <= y_d_2 <= 100
 20 <= y_a_2 <= 100
 20 <= y_d_3 <= 100
 20 <= y_a_3 <= 100
 20 <= y_d_4 <= 100
 20 <= y_a_4 <= 100
 20 <= y_d_5 <= 100
 20 <= y_a_5 <= 100
 0 <= w_6_0 <= 1
 0 <= w_6_1 <= 1
 20 <= y_a_6 <= 100
 20 <= y_d_6 <= 100
 0 <= w_7_0 <= 1
 0 <= w_7_1 <= 1
 20 <= y_a_7 <= 100
 20 <= y_d_7 <= 100
 20 <= y_d_8 <= 100
 20 <= y_a_8 <= 100
 0 <= z_0_1 <= 1
 0 <= x_0_1 <= 1
 0 <= x69 <= 1
 0 <= x71 <= 1
 0 <= z_0_4 <= 1
 0 <= x_0_4 <= 1
 0 <= z_0_5 <= 1
 0 <= x_0_5 <= 1
 0 <= z_0_6 <= 1
 0 <= x_0_6 <= 1
 0 <= x82 <= 1
 0 <= x84 <= 1
 0 <= z_1_0 <= 1
 0 <= x_1_0 <= 1
 0 <= x89 <= 1
 0 <= x91 <= 1
 0 <= z_1_4 <= 1
 0 <= x_1_4 <= 1
 0 <= z_1_5 <= 1
 0 <= x_1_5 <= 1
 0 <= x99 <= 1
 0 <= x101 <= 1
 0 <= z_1_8 <= 1
 0 <= x_1_8 <= 1
 0 <= x106 <= 1
 0 <= x108 <= 1
 0 <= x110 <= 1
 0 <= z_2_4 <= 1
 0 <= x_2_4 <= 1
 0 <= z_2_5 <= 1
 0 <= x_2_5 <= 1
 0 <= x118 <= 1
 0 <= x120 <= 1
 0 <= x122 <= 1
 0 <= x124 <= 1
 0 <= x126 <= 1
 0 <= x128 <= 1
 0 <= z_3_4 <= 1
 0 <= x_3_4 <= 1
 0 <= z_3_5 <= 1
 0 <= x_3_5 <= 1
 0 <= x136 <= 1
 0 <= x138 <= 1
 0 <= x140 <= 1
 0 <= z_4_0 <= 1
 0 <= x_4_0 <= 1
 0 <= z_4_1 <= 1
 0 <= x_4_1 <= 1
 0 <= z_4_2 <= 1
 0 <= x_4_2 <= 1
 0 <= z_4_3 <= 1
 0 <= x_4_3 <= 1
 0 <= x154 <= 1
 0 <= x156 <= 1
 0 <= x158 <= 1
 0 <= z_4_8 <= 1
 0 <= x_4_8 <= 1
 0 <= z_5_0 <= 1
 0 <= x_5_0 <= 1
 0 <= z_5_1 <= 1
 0 <= x_5_1 <= 1
 0 <= z_5_2 <= 1
 0 <= x_5_2 <= 1
 0 <= z_5_3 <= 1
 0 <= x_5_3 <= 1
 0 <= x175 <= 1
 0 <= x177 <= 1
 0 <= x179 <= 1
 0 <= z_5_8 <= 1
 0 <= x_5_8 <= 1
 0 <= z_6_0 <= 1
 0 <= x_6_0 <= 1
 0 <= x187 <= 1
 0 <= x189 <= 1
 0 <= x191 <= 1
 0 <= x193 <= 1
 0 <= x195 <= 1
 0 <= x197 <= 1
 0 <= z_6_8 <= 1
 0 <= x_6_8 <= 1
 0 <= x202 <= 1
 0 <= x204 <= 1
 0 <= x206 <= 1
 0 <= x208 <= 1
 0 <= x210 <= 1
 0 <= x212 <= 1
 0 <= x214 <= 1
 0 <= x216 <= 1
 0 <= x218 <= 1
 0 <= z_8_1 <= 1
 0 <= x_8_1 <= 1
 0 <= x223 <= 1
 0 <= x225 <= 1
 0 <= z_8_4 <= 1
 0 <= x_8_4 <= 1
 0 <= z_8_5 <= 1
 0 <= x_8_5 <= 1
 0 <= z_8_6 <= 1
 0 <= x_8_6 <= 1
 0 <= x236 <= 1
 0 <= x_0_2 <= 1
 0 <= x_0_3 <= 1
 0 <= x_0_7 <= 1
 0 <= x_0_8 <= 1
 0 <= x_2_8 <= 1
 0 <= x_3_8 <= 1
 0 <= x_7_8 <= 1
 0 <= x_2_1 <= 1
 0 <= x_3_1 <= 1
 0 <= x_6_1 <= 1
 0 <= x_7_1 <= 1
 0 <= x_1_2 <= 1
 0 <= x_1_3 <= 1
 0 <= x_1_6 <= 1
 0 <= x_1_7 <= 1
 0 <= x_3_2 <= 1
 0 <= x_6_2 <= 1
 0 <= x_7_2 <= 1
 0 <= x_8_2 <= 1
 0 <= x_2_0 <= 1
 0 <= x_2_3 <= 1
 0 <= x_2_6 <= 1
 0 <= x_2_7 <= 1
 0 <= x_6_3 <= 1
 0 <= x_7_3 <= 1
 0 <= x_8_3 <= 1
 0 <= x_3_0 <= 1
 0 <= x_3_6 <= 1
 0 <= x_3_7 <= 1
 0 <= x_5_4 <= 1
 0 <= x_6_4 <= 1
 0 <= x_7_4 <= 1
 0 <= x_4_5 <= 1
 0 <= x_4_6 <= 1
 0 <= x_4_7 <= 1
 0 <= x_6_5 <= 1
 0 <= x_7_5 <= 1
 0 <= x_5_6 <= 1
 0 <= x_5_7 <= 1
 0 <= x_7_6 <= 1
 0 <= x_6_7 <= 1
 0 <= x_8_7 <= 1
 0 <= x_7_0 <= 1
 0 <= u_1 <= 8
 0 <= u_2 <= 8
 0 <= u_3 <= 8
 0 <= u_4 <= 8
 0 <= u_5 <= 8
 0 <= u_6 <= 8
 0 <= u_7 <= 8
 0 <= u_8 <= 8
 0 <= u_0 <= 8
 0 <= x_8_0 <= 1
Binaries
 w_6_0  w_6_1  w_7_0  w_7_1  z_0_1  x_0_1  x69  x71  z_0_4  x_0_4  z_0_5 
 x_0_5  z_0_6  x_0_6  x82  x84  z_1_0  x_1_0  x89  x91  z_1_4  x_1_4  z_1_5 
 x_1_5  x99  x101  z_1_8  x_1_8  x106  x108  x110  z_2_4  x_2_4  z_2_5  x_2_5 
 x118  x120  x122  x124  x126  x128  z_3_4  x_3_4  z_3_5  x_3_5  x136  x138 
 x140  z_4_0  x_4_0  z_4_1  x_4_1  z_4_2  x_4_2  z_4_3  x_4_3  x154  x156 
 x158  z_4_8  x_4_8  z_5_0  x_5_0  z_5_1  x_5_1  z_5_2  x_5_2  z_5_3  x_5_3 
 x175  x177  x179  z_5_8  x_5_8  z_6_0  x_6_0  x187  x189  x191  x193  x195 
 x197  z_6_8  x_6_8  x202  x204  x206  x208  x210  x212  x214  x216  x218 
 z_8_1  x_8_1  x223  x225  z_8_4  x_8_4  z_8_5  x_8_5  z_8_6  x_8_6  x236 
 x_0_2  x_0_3  x_0_7  x_0_8  x_2_8  x_3_8  x_7_8  x_2_1  x_3_1  x_6_1  x_7_1 
 x_1_2  x_1_3  x_1_6  x_1_7  x_3_2  x_6_2  x_7_2  x_8_2  x_2_0  x_2_3  x_2_6 
 x_2_7  x_6_3  x_7_3  x_8_3  x_3_0  x_3_6  x_3_7  x_5_4  x_6_4  x_7_4  x_4_5 
 x_4_6  x_4_7  x_6_5  x_7_5  x_5_6  x_5_7  x_7_6  x_6_7  x_8_7  x_7_0  x_8_0 
End
