\ENCODING=ISO-8859-1
\Problem name: IloCplex

Minimize
 obj1: 45.1774279923061 x_0_1 + 35.0570962859162 x_0_2 + 35 x_0_3
       + 57.0087712549569 x_0_4 + 55.7135531087365 x_0_5
       + 46.0434577328854 x_0_6 + 41.7731971484108 x_0_7
       + 45.1774279923061 x_1_0 + 10.1980390271856 x_1_2
       + 10.770329614269 x_1_3 + 59.1692487699481 x_1_4
       + 54.1202365109392 x_1_5 + 38.9486841883009 x_1_6
       + 27.7848879788996 x_1_7 + 45.1774279923061 x_1_8
       + 35.0570962859162 x_2_0 + 10.1980390271856 x_2_1 + 2 x_2_3
       + 56.6480361530742 x_2_4 + 52.2015325445527 x_2_5
       + 37.1079506305589 x_2_6 + 26.3058928759318 x_2_7
       + 35.0570962859162 x_2_8 + 35 x_3_0 + 10.770329614269 x_3_1 + 2 x_3_2
       + 58.5234995535981 x_3_4 + 54.1202365109392 x_3_5
       + 39.0512483795333 x_3_6 + 28.2842712474619 x_3_7 + 35 x_3_8
       + 57.0087712549569 x_4_0 + 59.1692487699481 x_4_1
       + 56.6480361530742 x_4_2 + 58.5234995535981 x_4_3
       + 5.8309518948453 x_4_5 + 20.2484567313166 x_4_6
       + 31.3847096529504 x_4_7 + 57.0087712549569 x_4_8
       + 55.7135531087365 x_5_0 + 54.1202365109392 x_5_1
       + 52.2015325445527 x_5_2 + 54.1202365109392 x_5_3
       + 5.8309518948453 x_5_4 + 15.2315462117278 x_5_6
       + 26.4007575648882 x_5_7 + 55.7135531087365 x_5_8
       + 46.0434577328854 x_6_0 + 38.9486841883009 x_6_1
       + 37.1079506305589 x_6_2 + 39.0512483795333 x_6_3
       + 20.2484567313166 x_6_4 + 15.2315462117278 x_6_5
       + 11.1803398874989 x_6_7 + 46.0434577328854 x_6_8 + 50 w_6_0 + 50 w_6_1
       + 41.7731971484108 x_7_0 + 27.7848879788996 x_7_1
       + 26.3058928759318 x_7_2 + 28.2842712474619 x_7_3
       + 31.3847096529504 x_7_4 + 26.4007575648882 x_7_5
       + 11.1803398874989 x_7_6 + 41.7731971484108 x_7_8 + 50 w_7_0 + 50 w_7_1
       + 45.1774279923061 x_8_1 + 35.0570962859162 x_8_2 + 35 x_8_3
       + 57.0087712549569 x_8_4 + 55.7135531087365 x_8_5
       + 46.0434577328854 x_8_6 + 41.7731971484108 x_8_7 + 4 t_8
Subject To
 c1:   phi_0  = 0
 c2:   y_d_0 - y_a_0  = 0
 c3:   phi_1  = 0
 c4:   y_d_1 - y_a_1  = 0
 c5:   phi_2  = 0
 c6:   y_d_2 - y_a_2  = 0
 c7:   phi_3  = 0
 c8:   y_d_3 - y_a_3  = 0
 c9:   phi_4  = 0
 c10:  y_d_4 - y_a_4  = 0
 c11:  phi_5  = 0
 c12:  y_d_5 - y_a_5  = 0
 c13:  - 92.3790760103145 w_6_0 + psi_6_0 <= 0
 c14:  psi_6_0 >= 0
 c15:  - 38.1195895389376 w_6_1 + psi_6_1 <= 0
 c16:  psi_6_1 >= 0
 c17:  - psi_6_0 - psi_6_1 + phi_6  = 0
 c18:  - 0.865996970905702 psi_6_0 - 2.09865848419704 psi_6_1 - y_a_6 + y_d_6
        = 0
 c19:  - 138.40607270724 w_7_0 + psi_7_0 <= 0
 c20:  psi_7_0 >= 0
 c21:  - 48.30933859839 w_7_1 + psi_7_1 <= 0
 c22:  psi_7_1 >= 0
 c23:  - psi_7_0 - psi_7_1 + phi_7  = 0
 c24:  - 0.578009320221218 psi_7_0 - 1.6559945203362 psi_7_1 - y_a_7 + y_d_7
        = 0
 c25:  phi_8  = 0
 c26:  y_d_8 - y_a_8  = 0
 c27:  x_0_1 + x_0_2 + x_0_3 + x_0_4 + x_0_5 + x_0_6 + x_0_7 + x_0_8  = 1
 c28:  x_1_8 + x_2_8 + x_3_8 + x_4_8 + x_5_8 + x_6_8 + x_7_8 + x_0_8  = 1
 c29:  x_0_1 + x_2_1 + x_3_1 + x_4_1 + x_5_1 + x_6_1 + x_7_1 + x_8_1  = 1
 c30:  x_1_0 + x_1_2 + x_1_3 + x_1_4 + x_1_5 + x_1_6 + x_1_7 + x_1_8  = 1
 c31:  x_0_2 + x_1_2 + x_3_2 + x_4_2 + x_5_2 + x_6_2 + x_7_2 + x_8_2  = 1
 c32:  x_2_0 + x_2_1 + x_2_3 + x_2_4 + x_2_5 + x_2_6 + x_2_7 + x_2_8  = 1
 c33:  x_0_3 + x_1_3 + x_2_3 + x_4_3 + x_5_3 + x_6_3 + x_7_3 + x_8_3  = 1
 c34:  x_3_0 + x_3_1 + x_3_2 + x_3_4 + x_3_5 + x_3_6 + x_3_7 + x_3_8  = 1
 c35:  x_0_4 + x_1_4 + x_2_4 + x_3_4 + x_5_4 + x_6_4 + x_7_4 + x_8_4  = 1
 c36:  x_4_0 + x_4_1 + x_4_2 + x_4_3 + x_4_5 + x_4_6 + x_4_7 + x_4_8  = 1
 c37:  x_0_5 + x_1_5 + x_2_5 + x_3_5 + x_4_5 + x_6_5 + x_7_5 + x_8_5  = 1
 c38:  x_5_0 + x_5_1 + x_5_2 + x_5_3 + x_5_4 + x_5_6 + x_5_7 + x_5_8  = 1
 c39:  x_0_6 + x_1_6 + x_2_6 + x_3_6 + x_4_6 + x_5_6 - x_6_0 - x_6_1 - x_6_2
       - x_6_3 - x_6_4 - x_6_5 - x_6_7 - x_6_8 + x_7_6 + x_8_6  = 0
 c40:  x_0_7 + x_1_7 + x_2_7 + x_3_7 + x_4_7 + x_5_7 + x_6_7 - x_7_0 - x_7_1
       - x_7_2 - x_7_3 - x_7_4 - x_7_5 - x_7_6 - x_7_8 + x_8_7  = 0
 c41:  9 x_1_2 + u_1 - u_2 <= 8
 c42:  9 x_1_3 + u_1 - u_3 <= 8
 c43:  9 x_1_4 + u_1 - u_4 <= 8
 c44:  9 x_1_5 + u_1 - u_5 <= 8
 c45:  9 x_1_6 + u_1 - u_6 <= 8
 c46:  9 x_1_7 + u_1 - u_7 <= 8
 c47:  9 x_1_8 + u_1 - u_8 <= 8
 c48:  9 x_2_1 - u_1 + u_2 <= 8
 c49:  9 x_2_3 + u_2 - u_3 <= 8
 c50:  9 x_2_4 + u_2 - u_4 <= 8
 c51:  9 x_2_5 + u_2 - u_5 <= 8
 c52:  9 x_2_6 + u_2 - u_6 <= 8
 c53:  9 x_2_7 + u_2 - u_7 <= 8
 c54:  9 x_2_8 + u_2 - u_8 <= 8
 c55:  9 x_3_1 - u_1 + u_3 <= 8
 c56:  9 x_3_2 - u_2 + u_3 <= 8
 c57:  9 x_3_4 + u_3 - u_4 <= 8
 c58:  9 x_3_5 + u_3 - u_5 <= 8
 c59:  9 x_3_6 + u_3 - u_6 <= 8
 c60:  9 x_3_7 + u_3 - u_7 <= 8
 c61:  9 x_3_8 + u_3 - u_8 <= 8
 c62:  9 x_4_1 - u_1 + u_4 <= 8
 c63:  9 x_4_2 - u_2 + u_4 <= 8
 c64:  9 x_4_3 - u_3 + u_4 <= 8
 c65:  9 x_4_5 + u_4 - u_5 <= 8
 c66:  9 x_4_6 + u_4 - u_6 <= 8
 c67:  9 x_4_7 + u_4 - u_7 <= 8
 c68:  9 x_4_8 + u_4 - u_8 <= 8
 c69:  9 x_5_1 - u_1 + u_5 <= 8
 c70:  9 x_5_2 - u_2 + u_5 <= 8
 c71:  9 x_5_3 - u_3 + u_5 <= 8
 c72:  9 x_5_4 - u_4 + u_5 <= 8
 c73:  9 x_5_6 + u_5 - u_6 <= 8
 c74:  9 x_5_7 + u_5 - u_7 <= 8
 c75:  9 x_5_8 + u_5 - u_8 <= 8
 c76:  9 x_6_1 - u_1 + u_6 <= 8
 c77:  9 x_6_2 - u_2 + u_6 <= 8
 c78:  9 x_6_3 - u_3 + u_6 <= 8
 c79:  9 x_6_4 - u_4 + u_6 <= 8
 c80:  9 x_6_5 - u_5 + u_6 <= 8
 c81:  9 x_6_7 + u_6 - u_7 <= 8
 c82:  9 x_6_8 + u_6 - u_8 <= 8
 c83:  9 x_7_1 - u_1 + u_7 <= 8
 c84:  9 x_7_2 - u_2 + u_7 <= 8
 c85:  9 x_7_3 - u_3 + u_7 <= 8
 c86:  9 x_7_4 - u_4 + u_7 <= 8
 c87:  9 x_7_5 - u_5 + u_7 <= 8
 c88:  9 x_7_6 - u_6 + u_7 <= 8
 c89:  9 x_7_8 + u_7 - u_8 <= 8
 c90:  9 x_8_1 - u_1 + u_8 <= 8
 c91:  9 x_8_2 - u_2 + u_8 <= 8
 c92:  9 x_8_3 - u_3 + u_8 <= 8
 c93:  9 x_8_4 - u_4 + u_8 <= 8
 c94:  9 x_8_5 - u_5 + u_8 <= 8
 c95:  9 x_8_6 - u_6 + u_8 <= 8
 c96:  9 x_8_7 - u_7 + u_8 <= 8
 c97:  u_0  = 0
 c98:  y_a_0  = 100
 c99:  y_d_0 - y_a_0  = 0
 c100: - 632.523238929533 x_0_1 - y_d_0 + y_a_1 >= -677.700666921839
 c101: 632.523238929533 x_0_1 - y_d_0 + y_a_1 <= 587.345810937226
 c102: y_a_1 >= 20
 c103: - 632.523238929533 x_0_2 - y_d_0 + y_a_2 >= -667.580335215449
 c104: 632.523238929533 x_0_2 - y_d_0 + y_a_2 <= 597.466142643616
 c105: y_a_2 >= 20
 c106: - 632.523238929533 x_0_3 - y_d_0 + y_a_3 >= -667.523238929533
 c107: 632.523238929533 x_0_3 - y_d_0 + y_a_3 <= 597.523238929533
 c108: y_a_3 >= 20
 c109: - 632.523238929533 x_0_4 - y_d_0 + y_a_4 >= -689.532010184489
 c110: 632.523238929533 x_0_4 - y_d_0 + y_a_4 <= 575.514467674576
 c111: y_a_4 >= 20
 c112: - 632.523238929533 x_0_5 - y_d_0 + y_a_5 >= -688.236792038269
 c113: 632.523238929533 x_0_5 - y_d_0 + y_a_5 <= 576.809685820796
 c114: y_a_5 >= 20
 c115: - 632.523238929533 x_0_6 - y_d_0 + y_a_6 >= -678.566696662418
 c116: 632.523238929533 x_0_6 - y_d_0 + y_a_6 <= 586.479781196647
 c117: y_a_6 >= 20
 c118: - 632.523238929533 x_0_7 - y_d_0 + y_a_7 >= -674.296436077943
 c119: 632.523238929533 x_0_7 - y_d_0 + y_a_7 <= 590.750041781122
 c120: y_a_7 >= 20
 c121: - y_d_0 + y_a_8 - 632.523238929533 x_0_8 >= -632.523238929533
 c122: - y_d_0 + y_a_8 + 632.523238929533 x_0_8 <= 632.523238929533
 c123: y_a_8 >= 20
 c124: - 632.523238929533 x_1_0 + y_a_0 - y_d_1 >= -677.700666921839
 c125: 632.523238929533 x_1_0 + y_a_0 - y_d_1 <= 587.345810937226
 c126: y_a_0 >= 20
 c127: - 632.523238929533 x_1_2 - y_d_1 + y_a_2 >= -642.721277956718
 c128: 632.523238929533 x_1_2 - y_d_1 + y_a_2 <= 622.325199902347
 c129: y_a_2 >= 20
 c130: - 632.523238929533 x_1_3 - y_d_1 + y_a_3 >= -643.293568543802
 c131: 632.523238929533 x_1_3 - y_d_1 + y_a_3 <= 621.752909315264
 c132: y_a_3 >= 20
 c133: - 632.523238929533 x_1_4 - y_d_1 + y_a_4 >= -691.692487699481
 c134: 632.523238929533 x_1_4 - y_d_1 + y_a_4 <= 573.353990159585
 c135: y_a_4 >= 20
 c136: - 632.523238929533 x_1_5 - y_d_1 + y_a_5 >= -686.643475440472
 c137: 632.523238929533 x_1_5 - y_d_1 + y_a_5 <= 578.403002418593
 c138: y_a_5 >= 20
 c139: - 632.523238929533 x_1_6 - y_d_1 + y_a_6 >= -671.471923117834
 c140: 632.523238929533 x_1_6 - y_d_1 + y_a_6 <= 593.574554741232
 c141: y_a_6 >= 20
 c142: - 632.523238929533 x_1_7 - y_d_1 + y_a_7 >= -660.308126908432
 c143: 632.523238929533 x_1_7 - y_d_1 + y_a_7 <= 604.738350950633
 c144: y_a_7 >= 20
 c145: - 632.523238929533 x_1_8 - y_d_1 + y_a_8 >= -677.700666921839
 c146: 632.523238929533 x_1_8 - y_d_1 + y_a_8 <= 587.345810937226
 c147: y_a_8 >= 20
 c148: - 632.523238929533 x_2_0 + y_a_0 - y_d_2 >= -667.580335215449
 c149: 632.523238929533 x_2_0 + y_a_0 - y_d_2 <= 597.466142643616
 c150: y_a_0 >= 20
 c151: - 632.523238929533 x_2_1 + y_a_1 - y_d_2 >= -642.721277956718
 c152: 632.523238929533 x_2_1 + y_a_1 - y_d_2 <= 622.325199902347
 c153: y_a_1 >= 20
 c154: - 632.523238929533 x_2_3 - y_d_2 + y_a_3 >= -634.523238929533
 c155: 632.523238929533 x_2_3 - y_d_2 + y_a_3 <= 630.523238929533
 c156: y_a_3 >= 20
 c157: - 632.523238929533 x_2_4 - y_d_2 + y_a_4 >= -689.171275082607
 c158: 632.523238929533 x_2_4 - y_d_2 + y_a_4 <= 575.875202776458
 c159: y_a_4 >= 20
 c160: - 632.523238929533 x_2_5 - y_d_2 + y_a_5 >= -684.724771474085
 c161: 632.523238929533 x_2_5 - y_d_2 + y_a_5 <= 580.32170638498
 c162: y_a_5 >= 20
 c163: - 632.523238929533 x_2_6 - y_d_2 + y_a_6 >= -669.631189560092
 c164: 632.523238929533 x_2_6 - y_d_2 + y_a_6 <= 595.415288298974
 c165: y_a_6 >= 20
 c166: - 632.523238929533 x_2_7 - y_d_2 + y_a_7 >= -658.829131805464
 c167: 632.523238929533 x_2_7 - y_d_2 + y_a_7 <= 606.217346053601
 c168: y_a_7 >= 20
 c169: - 632.523238929533 x_2_8 - y_d_2 + y_a_8 >= -667.580335215449
 c170: 632.523238929533 x_2_8 - y_d_2 + y_a_8 <= 597.466142643616
 c171: y_a_8 >= 20
 c172: - 632.523238929533 x_3_0 + y_a_0 - y_d_3 >= -667.523238929533
 c173: 632.523238929533 x_3_0 + y_a_0 - y_d_3 <= 597.523238929533
 c174: y_a_0 >= 20
 c175: - 632.523238929533 x_3_1 + y_a_1 - y_d_3 >= -643.293568543802
 c176: 632.523238929533 x_3_1 + y_a_1 - y_d_3 <= 621.752909315264
 c177: y_a_1 >= 20
 c178: - 632.523238929533 x_3_2 + y_a_2 - y_d_3 >= -634.523238929533
 c179: 632.523238929533 x_3_2 + y_a_2 - y_d_3 <= 630.523238929533
 c180: y_a_2 >= 20
 c181: - 632.523238929533 x_3_4 - y_d_3 + y_a_4 >= -691.046738483131
 c182: 632.523238929533 x_3_4 - y_d_3 + y_a_4 <= 573.999739375934
 c183: y_a_4 >= 20
 c184: - 632.523238929533 x_3_5 - y_d_3 + y_a_5 >= -686.643475440472
 c185: 632.523238929533 x_3_5 - y_d_3 + y_a_5 <= 578.403002418593
 c186: y_a_5 >= 20
 c187: - 632.523238929533 x_3_6 - y_d_3 + y_a_6 >= -671.574487309066
 c188: 632.523238929533 x_3_6 - y_d_3 + y_a_6 <= 593.471990549999
 c189: y_a_6 >= 20
 c190: - 632.523238929533 x_3_7 - y_d_3 + y_a_7 >= -660.807510176994
 c191: 632.523238929533 x_3_7 - y_d_3 + y_a_7 <= 604.238967682071
 c192: y_a_7 >= 20
 c193: - 632.523238929533 x_3_8 - y_d_3 + y_a_8 >= -667.523238929533
 c194: 632.523238929533 x_3_8 - y_d_3 + y_a_8 <= 597.523238929533
 c195: y_a_8 >= 20
 c196: - 632.523238929533 x_4_0 + y_a_0 - y_d_4 >= -689.532010184489
 c197: 632.523238929533 x_4_0 + y_a_0 - y_d_4 <= 575.514467674576
 c198: y_a_0 >= 20
 c199: - 632.523238929533 x_4_1 + y_a_1 - y_d_4 >= -691.692487699481
 c200: 632.523238929533 x_4_1 + y_a_1 - y_d_4 <= 573.353990159585
 c201: y_a_1 >= 20
 c202: - 632.523238929533 x_4_2 + y_a_2 - y_d_4 >= -689.171275082607
 c203: 632.523238929533 x_4_2 + y_a_2 - y_d_4 <= 575.875202776458
 c204: y_a_2 >= 20
 c205: - 632.523238929533 x_4_3 + y_a_3 - y_d_4 >= -691.046738483131
 c206: 632.523238929533 x_4_3 + y_a_3 - y_d_4 <= 573.999739375934
 c207: y_a_3 >= 20
 c208: - 632.523238929533 x_4_5 - y_d_4 + y_a_5 >= -638.354190824378
 c209: 632.523238929533 x_4_5 - y_d_4 + y_a_5 <= 626.692287034687
 c210: y_a_5 >= 20
 c211: - 632.523238929533 x_4_6 - y_d_4 + y_a_6 >= -652.771695660849
 c212: 632.523238929533 x_4_6 - y_d_4 + y_a_6 <= 612.274782198216
 c213: y_a_6 >= 20
 c214: - 632.523238929533 x_4_7 - y_d_4 + y_a_7 >= -663.907948582483
 c215: 632.523238929533 x_4_7 - y_d_4 + y_a_7 <= 601.138529276582
 c216: y_a_7 >= 20
 c217: - 632.523238929533 x_4_8 - y_d_4 + y_a_8 >= -689.532010184489
 c218: 632.523238929533 x_4_8 - y_d_4 + y_a_8 <= 575.514467674576
 c219: y_a_8 >= 20
 c220: - 632.523238929533 x_5_0 + y_a_0 - y_d_5 >= -688.236792038269
 c221: 632.523238929533 x_5_0 + y_a_0 - y_d_5 <= 576.809685820796
 c222: y_a_0 >= 20
 c223: - 632.523238929533 x_5_1 + y_a_1 - y_d_5 >= -686.643475440472
 c224: 632.523238929533 x_5_1 + y_a_1 - y_d_5 <= 578.403002418593
 c225: y_a_1 >= 20
 c226: - 632.523238929533 x_5_2 + y_a_2 - y_d_5 >= -684.724771474085
 c227: 632.523238929533 x_5_2 + y_a_2 - y_d_5 <= 580.32170638498
 c228: y_a_2 >= 20
 c229: - 632.523238929533 x_5_3 + y_a_3 - y_d_5 >= -686.643475440472
 c230: 632.523238929533 x_5_3 + y_a_3 - y_d_5 <= 578.403002418593
 c231: y_a_3 >= 20
 c232: - 632.523238929533 x_5_4 + y_a_4 - y_d_5 >= -638.354190824378
 c233: 632.523238929533 x_5_4 + y_a_4 - y_d_5 <= 626.692287034687
 c234: y_a_4 >= 20
 c235: - 632.523238929533 x_5_6 - y_d_5 + y_a_6 >= -647.75478514126
 c236: 632.523238929533 x_5_6 - y_d_5 + y_a_6 <= 617.291692717805
 c237: y_a_6 >= 20
 c238: - 632.523238929533 x_5_7 - y_d_5 + y_a_7 >= -658.923996494421
 c239: 632.523238929533 x_5_7 - y_d_5 + y_a_7 <= 606.122481364644
 c240: y_a_7 >= 20
 c241: - 632.523238929533 x_5_8 - y_d_5 + y_a_8 >= -688.236792038269
 c242: 632.523238929533 x_5_8 - y_d_5 + y_a_8 <= 576.809685820796
 c243: y_a_8 >= 20
 c244: - 632.523238929533 x_6_0 + y_a_0 - y_d_6 >= -678.566696662418
 c245: 632.523238929533 x_6_0 + y_a_0 - y_d_6 <= 586.479781196647
 c246: y_a_0 >= 20
 c247: - 632.523238929533 x_6_1 + y_a_1 - y_d_6 >= -671.471923117834
 c248: 632.523238929533 x_6_1 + y_a_1 - y_d_6 <= 593.574554741232
 c249: y_a_1 >= 20
 c250: - 632.523238929533 x_6_2 + y_a_2 - y_d_6 >= -669.631189560092
 c251: 632.523238929533 x_6_2 + y_a_2 - y_d_6 <= 595.415288298974
 c252: y_a_2 >= 20
 c253: - 632.523238929533 x_6_3 + y_a_3 - y_d_6 >= -671.574487309066
 c254: 632.523238929533 x_6_3 + y_a_3 - y_d_6 <= 593.471990549999
 c255: y_a_3 >= 20
 c256: - 632.523238929533 x_6_4 + y_a_4 - y_d_6 >= -652.771695660849
 c257: 632.523238929533 x_6_4 + y_a_4 - y_d_6 <= 612.274782198216
 c258: y_a_4 >= 20
 c259: - 632.523238929533 x_6_5 + y_a_5 - y_d_6 >= -647.75478514126
 c260: 632.523238929533 x_6_5 + y_a_5 - y_d_6 <= 617.291692717805
 c261: y_a_5 >= 20
 c262: - 632.523238929533 x_6_7 - y_d_6 + y_a_7 >= -643.703578817031
 c263: 632.523238929533 x_6_7 - y_d_6 + y_a_7 <= 621.342899042034
 c264: y_a_7 >= 20
 c265: - 632.523238929533 x_6_8 - y_d_6 + y_a_8 >= -678.566696662418
 c266: 632.523238929533 x_6_8 - y_d_6 + y_a_8 <= 586.479781196647
 c267: y_a_8 >= 20
 c268: - 632.523238929533 x_7_0 + y_a_0 - y_d_7 >= -674.296436077943
 c269: 632.523238929533 x_7_0 + y_a_0 - y_d_7 <= 590.750041781122
 c270: y_a_0 >= 20
 c271: - 632.523238929533 x_7_1 + y_a_1 - y_d_7 >= -660.308126908432
 c272: 632.523238929533 x_7_1 + y_a_1 - y_d_7 <= 604.738350950633
 c273: y_a_1 >= 20
 c274: - 632.523238929533 x_7_2 + y_a_2 - y_d_7 >= -658.829131805464
 c275: 632.523238929533 x_7_2 + y_a_2 - y_d_7 <= 606.217346053601
 c276: y_a_2 >= 20
 c277: - 632.523238929533 x_7_3 + y_a_3 - y_d_7 >= -660.807510176994
 c278: 632.523238929533 x_7_3 + y_a_3 - y_d_7 <= 604.238967682071
 c279: y_a_3 >= 20
 c280: - 632.523238929533 x_7_4 + y_a_4 - y_d_7 >= -663.907948582483
 c281: 632.523238929533 x_7_4 + y_a_4 - y_d_7 <= 601.138529276582
 c282: y_a_4 >= 20
 c283: - 632.523238929533 x_7_5 + y_a_5 - y_d_7 >= -658.923996494421
 c284: 632.523238929533 x_7_5 + y_a_5 - y_d_7 <= 606.122481364644
 c285: y_a_5 >= 20
 c286: - 632.523238929533 x_7_6 + y_a_6 - y_d_7 >= -643.703578817031
 c287: 632.523238929533 x_7_6 + y_a_6 - y_d_7 <= 621.342899042034
 c288: y_a_6 >= 20
 c289: - 632.523238929533 x_7_8 - y_d_7 + y_a_8 >= -674.296436077943
 c290: 632.523238929533 x_7_8 - y_d_7 + y_a_8 <= 590.750041781122
 c291: y_a_8 >= 20
 c292: y_a_0 - y_d_8 - 632.523238929533 x_8_0 >= -632.523238929533
 c293: y_a_0 - y_d_8 + 632.523238929533 x_8_0 <= 632.523238929533
 c294: y_a_0 >= 20
 c295: - 632.523238929533 x_8_1 + y_a_1 - y_d_8 >= -677.700666921839
 c296: 632.523238929533 x_8_1 + y_a_1 - y_d_8 <= 587.345810937226
 c297: y_a_1 >= 20
 c298: - 632.523238929533 x_8_2 + y_a_2 - y_d_8 >= -667.580335215449
 c299: 632.523238929533 x_8_2 + y_a_2 - y_d_8 <= 597.466142643616
 c300: y_a_2 >= 20
 c301: - 632.523238929533 x_8_3 + y_a_3 - y_d_8 >= -667.523238929533
 c302: 632.523238929533 x_8_3 + y_a_3 - y_d_8 <= 597.523238929533
 c303: y_a_3 >= 20
 c304: - 632.523238929533 x_8_4 + y_a_4 - y_d_8 >= -689.532010184489
 c305: 632.523238929533 x_8_4 + y_a_4 - y_d_8 <= 575.514467674576
 c306: y_a_4 >= 20
 c307: - 632.523238929533 x_8_5 + y_a_5 - y_d_8 >= -688.236792038269
 c308: 632.523238929533 x_8_5 + y_a_5 - y_d_8 <= 576.809685820796
 c309: y_a_5 >= 20
 c310: - 632.523238929533 x_8_6 + y_a_6 - y_d_8 >= -678.566696662418
 c311: 632.523238929533 x_8_6 + y_a_6 - y_d_8 <= 586.479781196647
 c312: y_a_6 >= 20
 c313: - 632.523238929533 x_8_7 + y_a_7 - y_d_8 >= -674.296436077943
 c314: 632.523238929533 x_8_7 + y_a_7 - y_d_8 <= 590.750041781122
 c315: y_a_7 >= 20
 c316: t_0  = 0
 c317: - 1.12943569980765 x_0_1 + s_0_1 >= 0
 c318: 318.734581093723 x_0_1 + s_0_1 <= 323.252323892953
 c319: - 323.252323892953 x_0_1 - t_0 - s_0_1 + t_1 >= -323.252323892953
 c320: 323.252323892953 x_0_1 - t_0 - s_0_1 + t_1 <= 323.252323892953
 c321: - 0.876427407147905 x_0_2 + s_0_2 >= 0
 c322: 319.746614264362 x_0_2 + s_0_2 <= 323.252323892953
 c323: - 323.252323892953 x_0_2 - t_0 - s_0_2 + t_2 >= -323.252323892953
 c324: 323.252323892953 x_0_2 - t_0 - s_0_2 + t_2 <= 323.252323892953
 c325: - 0.875 x_0_3 + s_0_3 >= 0
 c326: 319.752323892953 x_0_3 + s_0_3 <= 323.252323892953
 c327: - 323.252323892953 x_0_3 - t_0 - s_0_3 + t_3 >= -323.252323892953
 c328: 323.252323892953 x_0_3 - t_0 - s_0_3 + t_3 <= 323.252323892953
 c329: - 1.42521928137392 x_0_4 + s_0_4 >= 0
 c330: 317.551446767458 x_0_4 + s_0_4 <= 323.252323892953
 c331: - 323.252323892953 x_0_4 - t_0 - s_0_4 + t_4 >= -323.252323892953
 c332: 323.252323892953 x_0_4 - t_0 - s_0_4 + t_4 <= 323.252323892953
 c333: - 1.39283882771841 x_0_5 + s_0_5 >= 0
 c334: 317.68096858208 x_0_5 + s_0_5 <= 323.252323892953
 c335: - 323.252323892953 x_0_5 - t_0 - s_0_5 + t_5 >= -323.252323892953
 c336: 323.252323892953 x_0_5 - t_0 - s_0_5 + t_5 <= 323.252323892953
 c337: - 1.15108644332213 x_0_6 + s_0_6 >= 0
 c338: 318.647978119665 x_0_6 + s_0_6 <= 323.252323892953
 c339: - 323.252323892953 x_0_6 - t_0 - s_0_6 + t_6 >= -323.252323892953
 c340: 323.252323892953 x_0_6 - t_0 - s_0_6 + t_6 <= 323.252323892953
 c341: - 1.04432992871027 x_0_7 + s_0_7 >= 0
 c342: 319.075004178112 x_0_7 + s_0_7 <= 323.252323892953
 c343: - 323.252323892953 x_0_7 - t_0 - s_0_7 + t_7 >= -323.252323892953
 c344: 323.252323892953 x_0_7 - t_0 - s_0_7 + t_7 <= 323.252323892953
 c345: s_0_8 >= 0
 c346: 323.252323892953 x_0_8 + s_0_8 <= 323.252323892953
 c347: t_8 - 323.252323892953 x_0_8 - t_0 - s_0_8 >= -323.252323892953
 c348: t_8 + 323.252323892953 x_0_8 - t_0 - s_0_8 <= 323.252323892953
 c349: - 1.12943569980765 x_1_0 + s_1_0 >= 0
 c350: 318.734581093723 x_1_0 + s_1_0 <= 323.252323892953
 c351: - 323.252323892953 x_1_0 + t_0 - t_1 - s_1_0 >= -313.252323892953
 c352: 323.252323892953 x_1_0 + t_0 - t_1 - s_1_0 <= 333.252323892953
 c353: - 0.254950975679639 x_1_2 + s_1_2 >= 0
 c354: 322.232519990235 x_1_2 + s_1_2 <= 323.252323892953
 c355: - 323.252323892953 x_1_2 - t_1 + t_2 - s_1_2 >= -313.252323892953
 c356: 323.252323892953 x_1_2 - t_1 + t_2 - s_1_2 <= 333.252323892953
 c357: - 0.269258240356725 x_1_3 + s_1_3 >= 0
 c358: 322.175290931526 x_1_3 + s_1_3 <= 323.252323892953
 c359: - 323.252323892953 x_1_3 - t_1 + t_3 - s_1_3 >= -313.252323892953
 c360: 323.252323892953 x_1_3 - t_1 + t_3 - s_1_3 <= 333.252323892953
 c361: - 1.4792312192487 x_1_4 + s_1_4 >= 0
 c362: 317.335399015958 x_1_4 + s_1_4 <= 323.252323892953
 c363: - 323.252323892953 x_1_4 - t_1 + t_4 - s_1_4 >= -313.252323892953
 c364: 323.252323892953 x_1_4 - t_1 + t_4 - s_1_4 <= 333.252323892953
 c365: - 1.35300591277348 x_1_5 + s_1_5 >= 0
 c366: 317.840300241859 x_1_5 + s_1_5 <= 323.252323892953
 c367: - 323.252323892953 x_1_5 - t_1 + t_5 - s_1_5 >= -313.252323892953
 c368: 323.252323892953 x_1_5 - t_1 + t_5 - s_1_5 <= 333.252323892953
 c369: - 0.973717104707522 x_1_6 + s_1_6 >= 0
 c370: 319.357455474123 x_1_6 + s_1_6 <= 323.252323892953
 c371: - 323.252323892953 x_1_6 - t_1 + t_6 - s_1_6 >= -313.252323892953
 c372: 323.252323892953 x_1_6 - t_1 + t_6 - s_1_6 <= 333.252323892953
 c373: - 0.69462219947249 x_1_7 + s_1_7 >= 0
 c374: 320.473835095063 x_1_7 + s_1_7 <= 323.252323892953
 c375: - 323.252323892953 x_1_7 - t_1 + t_7 - s_1_7 >= -313.252323892953
 c376: 323.252323892953 x_1_7 - t_1 + t_7 - s_1_7 <= 333.252323892953
 c377: - 1.12943569980765 x_1_8 + s_1_8 >= 0
 c378: 318.734581093723 x_1_8 + s_1_8 <= 323.252323892953
 c379: - 323.252323892953 x_1_8 + t_8 - t_1 - s_1_8 >= -313.252323892953
 c380: 323.252323892953 x_1_8 + t_8 - t_1 - s_1_8 <= 333.252323892953
 c381: - 0.876427407147905 x_2_0 + s_2_0 >= 0
 c382: 319.746614264362 x_2_0 + s_2_0 <= 323.252323892953
 c383: - 323.252323892953 x_2_0 + t_0 - t_2 - s_2_0 >= -313.252323892953
 c384: 323.252323892953 x_2_0 + t_0 - t_2 - s_2_0 <= 333.252323892953
 c385: - 0.254950975679639 x_2_1 + s_2_1 >= 0
 c386: 322.232519990235 x_2_1 + s_2_1 <= 323.252323892953
 c387: - 323.252323892953 x_2_1 + t_1 - t_2 - s_2_1 >= -313.252323892953
 c388: 323.252323892953 x_2_1 + t_1 - t_2 - s_2_1 <= 333.252323892953
 c389: - 0.05 x_2_3 + s_2_3 >= 0
 c390: 323.052323892953 x_2_3 + s_2_3 <= 323.252323892953
 c391: - 323.252323892953 x_2_3 - t_2 + t_3 - s_2_3 >= -313.252323892953
 c392: 323.252323892953 x_2_3 - t_2 + t_3 - s_2_3 <= 333.252323892953
 c393: - 1.41620090382685 x_2_4 + s_2_4 >= 0
 c394: 317.587520277646 x_2_4 + s_2_4 <= 323.252323892953
 c395: - 323.252323892953 x_2_4 - t_2 + t_4 - s_2_4 >= -313.252323892953
 c396: 323.252323892953 x_2_4 - t_2 + t_4 - s_2_4 <= 333.252323892953
 c397: - 1.30503831361382 x_2_5 + s_2_5 >= 0
 c398: 318.032170638498 x_2_5 + s_2_5 <= 323.252323892953
 c399: - 323.252323892953 x_2_5 - t_2 + t_5 - s_2_5 >= -313.252323892953
 c400: 323.252323892953 x_2_5 - t_2 + t_5 - s_2_5 <= 333.252323892953
 c401: - 0.927698765763974 x_2_6 + s_2_6 >= 0
 c402: 319.541528829897 x_2_6 + s_2_6 <= 323.252323892953
 c403: - 323.252323892953 x_2_6 - t_2 + t_6 - s_2_6 >= -313.252323892953
 c404: 323.252323892953 x_2_6 - t_2 + t_6 - s_2_6 <= 333.252323892953
 c405: - 0.657647321898295 x_2_7 + s_2_7 >= 0
 c406: 320.62173460536 x_2_7 + s_2_7 <= 323.252323892953
 c407: - 323.252323892953 x_2_7 - t_2 + t_7 - s_2_7 >= -313.252323892953
 c408: 323.252323892953 x_2_7 - t_2 + t_7 - s_2_7 <= 333.252323892953
 c409: - 0.876427407147905 x_2_8 + s_2_8 >= 0
 c410: 319.746614264362 x_2_8 + s_2_8 <= 323.252323892953
 c411: - 323.252323892953 x_2_8 + t_8 - t_2 - s_2_8 >= -313.252323892953
 c412: 323.252323892953 x_2_8 + t_8 - t_2 - s_2_8 <= 333.252323892953
 c413: - 0.875 x_3_0 + s_3_0 >= 0
 c414: 319.752323892953 x_3_0 + s_3_0 <= 323.252323892953
 c415: - 323.252323892953 x_3_0 + t_0 - t_3 - s_3_0 >= -313.252323892953
 c416: 323.252323892953 x_3_0 + t_0 - t_3 - s_3_0 <= 333.252323892953
 c417: - 0.269258240356725 x_3_1 + s_3_1 >= 0
 c418: 322.175290931526 x_3_1 + s_3_1 <= 323.252323892953
 c419: - 323.252323892953 x_3_1 + t_1 - t_3 - s_3_1 >= -313.252323892953
 c420: 323.252323892953 x_3_1 + t_1 - t_3 - s_3_1 <= 333.252323892953
 c421: - 0.05 x_3_2 + s_3_2 >= 0
 c422: 323.052323892953 x_3_2 + s_3_2 <= 323.252323892953
 c423: - 323.252323892953 x_3_2 + t_2 - t_3 - s_3_2 >= -313.252323892953
 c424: 323.252323892953 x_3_2 + t_2 - t_3 - s_3_2 <= 333.252323892953
 c425: - 1.46308748883995 x_3_4 + s_3_4 >= 0
 c426: 317.399973937593 x_3_4 + s_3_4 <= 323.252323892953
 c427: - 323.252323892953 x_3_4 - t_3 + t_4 - s_3_4 >= -313.252323892953
 c428: 323.252323892953 x_3_4 - t_3 + t_4 - s_3_4 <= 333.252323892953
 c429: - 1.35300591277348 x_3_5 + s_3_5 >= 0
 c430: 317.840300241859 x_3_5 + s_3_5 <= 323.252323892953
 c431: - 323.252323892953 x_3_5 - t_3 + t_5 - s_3_5 >= -313.252323892953
 c432: 323.252323892953 x_3_5 - t_3 + t_5 - s_3_5 <= 333.252323892953
 c433: - 0.976281209488332 x_3_6 + s_3_6 >= 0
 c434: 319.347199055 x_3_6 + s_3_6 <= 323.252323892953
 c435: - 323.252323892953 x_3_6 - t_3 + t_6 - s_3_6 >= -313.252323892953
 c436: 323.252323892953 x_3_6 - t_3 + t_6 - s_3_6 <= 333.252323892953
 c437: - 0.707106781186548 x_3_7 + s_3_7 >= 0
 c438: 320.423896768207 x_3_7 + s_3_7 <= 323.252323892953
 c439: - 323.252323892953 x_3_7 - t_3 + t_7 - s_3_7 >= -313.252323892953
 c440: 323.252323892953 x_3_7 - t_3 + t_7 - s_3_7 <= 333.252323892953
 c441: - 0.875 x_3_8 + s_3_8 >= 0
 c442: 319.752323892953 x_3_8 + s_3_8 <= 323.252323892953
 c443: - 323.252323892953 x_3_8 + t_8 - t_3 - s_3_8 >= -313.252323892953
 c444: 323.252323892953 x_3_8 + t_8 - t_3 - s_3_8 <= 333.252323892953
 c445: - 1.42521928137392 x_4_0 + s_4_0 >= 0
 c446: 317.551446767458 x_4_0 + s_4_0 <= 323.252323892953
 c447: - 323.252323892953 x_4_0 + t_0 - t_4 - s_4_0 >= -313.252323892953
 c448: 323.252323892953 x_4_0 + t_0 - t_4 - s_4_0 <= 333.252323892953
 c449: - 1.4792312192487 x_4_1 + s_4_1 >= 0
 c450: 317.335399015958 x_4_1 + s_4_1 <= 323.252323892953
 c451: - 323.252323892953 x_4_1 + t_1 - t_4 - s_4_1 >= -313.252323892953
 c452: 323.252323892953 x_4_1 + t_1 - t_4 - s_4_1 <= 333.252323892953
 c453: - 1.41620090382685 x_4_2 + s_4_2 >= 0
 c454: 317.587520277646 x_4_2 + s_4_2 <= 323.252323892953
 c455: - 323.252323892953 x_4_2 + t_2 - t_4 - s_4_2 >= -313.252323892953
 c456: 323.252323892953 x_4_2 + t_2 - t_4 - s_4_2 <= 333.252323892953
 c457: - 1.46308748883995 x_4_3 + s_4_3 >= 0
 c458: 317.399973937593 x_4_3 + s_4_3 <= 323.252323892953
 c459: - 323.252323892953 x_4_3 + t_3 - t_4 - s_4_3 >= -313.252323892953
 c460: 323.252323892953 x_4_3 + t_3 - t_4 - s_4_3 <= 333.252323892953
 c461: - 0.145773797371133 x_4_5 + s_4_5 >= 0
 c462: 322.669228703469 x_4_5 + s_4_5 <= 323.252323892953
 c463: - 323.252323892953 x_4_5 - t_4 + t_5 - s_4_5 >= -313.252323892953
 c464: 323.252323892953 x_4_5 - t_4 + t_5 - s_4_5 <= 333.252323892953
 c465: - 0.506211418282915 x_4_6 + s_4_6 >= 0
 c466: 321.227478219822 x_4_6 + s_4_6 <= 323.252323892953
 c467: - 323.252323892953 x_4_6 - t_4 + t_6 - s_4_6 >= -313.252323892953
 c468: 323.252323892953 x_4_6 - t_4 + t_6 - s_4_6 <= 333.252323892953
 c469: - 0.784617741323761 x_4_7 + s_4_7 >= 0
 c470: 320.113852927658 x_4_7 + s_4_7 <= 323.252323892953
 c471: - 323.252323892953 x_4_7 - t_4 + t_7 - s_4_7 >= -313.252323892953
 c472: 323.252323892953 x_4_7 - t_4 + t_7 - s_4_7 <= 333.252323892953
 c473: - 1.42521928137392 x_4_8 + s_4_8 >= 0
 c474: 317.551446767458 x_4_8 + s_4_8 <= 323.252323892953
 c475: - 323.252323892953 x_4_8 + t_8 - t_4 - s_4_8 >= -313.252323892953
 c476: 323.252323892953 x_4_8 + t_8 - t_4 - s_4_8 <= 333.252323892953
 c477: - 1.39283882771841 x_5_0 + s_5_0 >= 0
 c478: 317.68096858208 x_5_0 + s_5_0 <= 323.252323892953
 c479: - 323.252323892953 x_5_0 + t_0 - t_5 - s_5_0 >= -313.252323892953
 c480: 323.252323892953 x_5_0 + t_0 - t_5 - s_5_0 <= 333.252323892953
 c481: - 1.35300591277348 x_5_1 + s_5_1 >= 0
 c482: 317.840300241859 x_5_1 + s_5_1 <= 323.252323892953
 c483: - 323.252323892953 x_5_1 + t_1 - t_5 - s_5_1 >= -313.252323892953
 c484: 323.252323892953 x_5_1 + t_1 - t_5 - s_5_1 <= 333.252323892953
 c485: - 1.30503831361382 x_5_2 + s_5_2 >= 0
 c486: 318.032170638498 x_5_2 + s_5_2 <= 323.252323892953
 c487: - 323.252323892953 x_5_2 + t_2 - t_5 - s_5_2 >= -313.252323892953
 c488: 323.252323892953 x_5_2 + t_2 - t_5 - s_5_2 <= 333.252323892953
 c489: - 1.35300591277348 x_5_3 + s_5_3 >= 0
 c490: 317.840300241859 x_5_3 + s_5_3 <= 323.252323892953
 c491: - 323.252323892953 x_5_3 + t_3 - t_5 - s_5_3 >= -313.252323892953
 c492: 323.252323892953 x_5_3 + t_3 - t_5 - s_5_3 <= 333.252323892953
 c493: - 0.145773797371133 x_5_4 + s_5_4 >= 0
 c494: 322.669228703469 x_5_4 + s_5_4 <= 323.252323892953
 c495: - 323.252323892953 x_5_4 + t_4 - t_5 - s_5_4 >= -313.252323892953
 c496: 323.252323892953 x_5_4 + t_4 - t_5 - s_5_4 <= 333.252323892953
 c497: - 0.380788655293195 x_5_6 + s_5_6 >= 0
 c498: 321.72916927178 x_5_6 + s_5_6 <= 323.252323892953
 c499: - 323.252323892953 x_5_6 - t_5 + t_6 - s_5_6 >= -313.252323892953
 c500: 323.252323892953 x_5_6 - t_5 + t_6 - s_5_6 <= 333.252323892953
 c501: - 0.660018939122204 x_5_7 + s_5_7 >= 0
 c502: 320.612248136464 x_5_7 + s_5_7 <= 323.252323892953
 c503: - 323.252323892953 x_5_7 - t_5 + t_7 - s_5_7 >= -313.252323892953
 c504: 323.252323892953 x_5_7 - t_5 + t_7 - s_5_7 <= 333.252323892953
 c505: - 1.39283882771841 x_5_8 + s_5_8 >= 0
 c506: 317.68096858208 x_5_8 + s_5_8 <= 323.252323892953
 c507: - 323.252323892953 x_5_8 + t_8 - t_5 - s_5_8 >= -313.252323892953
 c508: 323.252323892953 x_5_8 + t_8 - t_5 - s_5_8 <= 333.252323892953
 c509: - 1.15108644332213 x_6_0 + s_6_0 >= 0
 c510: 318.647978119665 x_6_0 + s_6_0 <= 323.252323892953
 c511: - 323.252323892953 x_6_0 - phi_6 + t_0 - t_6 - s_6_0
       >= -323.252323892953
 c512: 323.252323892953 x_6_0 - phi_6 + t_0 - t_6 - s_6_0 <= 323.252323892953
 c513: - 0.973717104707522 x_6_1 + s_6_1 >= 0
 c514: 319.357455474123 x_6_1 + s_6_1 <= 323.252323892953
 c515: - 323.252323892953 x_6_1 - phi_6 + t_1 - t_6 - s_6_1
       >= -323.252323892953
 c516: 323.252323892953 x_6_1 - phi_6 + t_1 - t_6 - s_6_1 <= 323.252323892953
 c517: - 0.927698765763974 x_6_2 + s_6_2 >= 0
 c518: 319.541528829897 x_6_2 + s_6_2 <= 323.252323892953
 c519: - 323.252323892953 x_6_2 - phi_6 + t_2 - t_6 - s_6_2
       >= -323.252323892953
 c520: 323.252323892953 x_6_2 - phi_6 + t_2 - t_6 - s_6_2 <= 323.252323892953
 c521: - 0.976281209488332 x_6_3 + s_6_3 >= 0
 c522: 319.347199055 x_6_3 + s_6_3 <= 323.252323892953
 c523: - 323.252323892953 x_6_3 - phi_6 + t_3 - t_6 - s_6_3
       >= -323.252323892953
 c524: 323.252323892953 x_6_3 - phi_6 + t_3 - t_6 - s_6_3 <= 323.252323892953
 c525: - 0.506211418282915 x_6_4 + s_6_4 >= 0
 c526: 321.227478219822 x_6_4 + s_6_4 <= 323.252323892953
 c527: - 323.252323892953 x_6_4 - phi_6 + t_4 - t_6 - s_6_4
       >= -323.252323892953
 c528: 323.252323892953 x_6_4 - phi_6 + t_4 - t_6 - s_6_4 <= 323.252323892953
 c529: - 0.380788655293195 x_6_5 + s_6_5 >= 0
 c530: 321.72916927178 x_6_5 + s_6_5 <= 323.252323892953
 c531: - 323.252323892953 x_6_5 - phi_6 + t_5 - t_6 - s_6_5
       >= -323.252323892953
 c532: 323.252323892953 x_6_5 - phi_6 + t_5 - t_6 - s_6_5 <= 323.252323892953
 c533: - 0.279508497187474 x_6_7 + s_6_7 >= 0
 c534: 322.134289904203 x_6_7 + s_6_7 <= 323.252323892953
 c535: - 323.252323892953 x_6_7 - phi_6 - t_6 + t_7 - s_6_7
       >= -323.252323892953
 c536: 323.252323892953 x_6_7 - phi_6 - t_6 + t_7 - s_6_7 <= 323.252323892953
 c537: - 1.15108644332213 x_6_8 + s_6_8 >= 0
 c538: 318.647978119665 x_6_8 + s_6_8 <= 323.252323892953
 c539: - 323.252323892953 x_6_8 + t_8 - phi_6 - t_6 - s_6_8
       >= -323.252323892953
 c540: 323.252323892953 x_6_8 + t_8 - phi_6 - t_6 - s_6_8 <= 323.252323892953
 c541: - 1.04432992871027 x_7_0 + s_7_0 >= 0
 c542: 319.075004178112 x_7_0 + s_7_0 <= 323.252323892953
 c543: - 323.252323892953 x_7_0 - phi_7 + t_0 - t_7 - s_7_0
       >= -323.252323892953
 c544: 323.252323892953 x_7_0 - phi_7 + t_0 - t_7 - s_7_0 <= 323.252323892953
 c545: - 0.69462219947249 x_7_1 + s_7_1 >= 0
 c546: 320.473835095063 x_7_1 + s_7_1 <= 323.252323892953
 c547: - 323.252323892953 x_7_1 - phi_7 + t_1 - t_7 - s_7_1
       >= -323.252323892953
 c548: 323.252323892953 x_7_1 - phi_7 + t_1 - t_7 - s_7_1 <= 323.252323892953
 c549: - 0.657647321898295 x_7_2 + s_7_2 >= 0
 c550: 320.62173460536 x_7_2 + s_7_2 <= 323.252323892953
 c551: - 323.252323892953 x_7_2 - phi_7 + t_2 - t_7 - s_7_2
       >= -323.252323892953
 c552: 323.252323892953 x_7_2 - phi_7 + t_2 - t_7 - s_7_2 <= 323.252323892953
 c553: - 0.707106781186548 x_7_3 + s_7_3 >= 0
 c554: 320.423896768207 x_7_3 + s_7_3 <= 323.252323892953
 c555: - 323.252323892953 x_7_3 - phi_7 + t_3 - t_7 - s_7_3
       >= -323.252323892953
 c556: 323.252323892953 x_7_3 - phi_7 + t_3 - t_7 - s_7_3 <= 323.252323892953
 c557: - 0.784617741323761 x_7_4 + s_7_4 >= 0
 c558: 320.113852927658 x_7_4 + s_7_4 <= 323.252323892953
 c559: - 323.252323892953 x_7_4 - phi_7 + t_4 - t_7 - s_7_4
       >= -323.252323892953
 c560: 323.252323892953 x_7_4 - phi_7 + t_4 - t_7 - s_7_4 <= 323.252323892953
 c561: - 0.660018939122204 x_7_5 + s_7_5 >= 0
 c562: 320.612248136464 x_7_5 + s_7_5 <= 323.252323892953
 c563: - 323.252323892953 x_7_5 - phi_7 + t_5 - t_7 - s_7_5
       >= -323.252323892953
 c564: 323.252323892953 x_7_5 - phi_7 + t_5 - t_7 - s_7_5 <= 323.252323892953
 c565: - 0.279508497187474 x_7_6 + s_7_6 >= 0
 c566: 322.134289904203 x_7_6 + s_7_6 <= 323.252323892953
 c567: - 323.252323892953 x_7_6 - phi_7 + t_6 - t_7 - s_7_6
       >= -323.252323892953
 c568: 323.252323892953 x_7_6 - phi_7 + t_6 - t_7 - s_7_6 <= 323.252323892953
 c569: - 1.04432992871027 x_7_8 + s_7_8 >= 0
 c570: 319.075004178112 x_7_8 + s_7_8 <= 323.252323892953
 c571: - 323.252323892953 x_7_8 + t_8 - phi_7 - t_7 - s_7_8
       >= -323.252323892953
 c572: 323.252323892953 x_7_8 + t_8 - phi_7 - t_7 - s_7_8 <= 323.252323892953
 c573: s_8_0 >= 0
 c574: 323.252323892953 x_8_0 + s_8_0 <= 323.252323892953
 c575: - t_8 - 323.252323892953 x_8_0 + t_0 - s_8_0 >= -323.252323892953
 c576: - t_8 + 323.252323892953 x_8_0 + t_0 - s_8_0 <= 323.252323892953
 c577: - 1.12943569980765 x_8_1 + s_8_1 >= 0
 c578: 318.734581093723 x_8_1 + s_8_1 <= 323.252323892953
 c579: - 323.252323892953 x_8_1 - t_8 + t_1 - s_8_1 >= -323.252323892953
 c580: 323.252323892953 x_8_1 - t_8 + t_1 - s_8_1 <= 323.252323892953
 c581: - 0.876427407147905 x_8_2 + s_8_2 >= 0
 c582: 319.746614264362 x_8_2 + s_8_2 <= 323.252323892953
 c583: - 323.252323892953 x_8_2 - t_8 + t_2 - s_8_2 >= -323.252323892953
 c584: 323.252323892953 x_8_2 - t_8 + t_2 - s_8_2 <= 323.252323892953
 c585: - 0.875 x_8_3 + s_8_3 >= 0
 c586: 319.752323892953 x_8_3 + s_8_3 <= 323.252323892953
 c587: - 323.252323892953 x_8_3 - t_8 + t_3 - s_8_3 >= -323.252323892953
 c588: 323.252323892953 x_8_3 - t_8 + t_3 - s_8_3 <= 323.252323892953
 c589: - 1.42521928137392 x_8_4 + s_8_4 >= 0
 c590: 317.551446767458 x_8_4 + s_8_4 <= 323.252323892953
 c591: - 323.252323892953 x_8_4 - t_8 + t_4 - s_8_4 >= -323.252323892953
 c592: 323.252323892953 x_8_4 - t_8 + t_4 - s_8_4 <= 323.252323892953
 c593: - 1.39283882771841 x_8_5 + s_8_5 >= 0
 c594: 317.68096858208 x_8_5 + s_8_5 <= 323.252323892953
 c595: - 323.252323892953 x_8_5 - t_8 + t_5 - s_8_5 >= -323.252323892953
 c596: 323.252323892953 x_8_5 - t_8 + t_5 - s_8_5 <= 323.252323892953
 c597: - 1.15108644332213 x_8_6 + s_8_6 >= 0
 c598: 318.647978119665 x_8_6 + s_8_6 <= 323.252323892953
 c599: - 323.252323892953 x_8_6 - t_8 + t_6 - s_8_6 >= -323.252323892953
 c600: 323.252323892953 x_8_6 - t_8 + t_6 - s_8_6 <= 323.252323892953
 c601: - 1.04432992871027 x_8_7 + s_8_7 >= 0
 c602: 319.075004178112 x_8_7 + s_8_7 <= 323.252323892953
 c603: - 323.252323892953 x_8_7 - t_8 + t_7 - s_8_7 >= -323.252323892953
 c604: 323.252323892953 x_8_7 - t_8 + t_7 - s_8_7 <= 323.252323892953
 c605: - x_0_6 - x_1_6 - x_2_6 - x_3_6 - x_4_6 - x_5_6 + w_6_0 + w_6_1 - x_7_6
       - x_8_6 <= 0
 c606: - x_0_7 - x_1_7 - x_2_7 - x_3_7 - x_4_7 - x_5_7 - x_6_7 + w_7_0 + w_7_1
       - x_8_7 <= 0
Bounds
 0 <= x_0_1 <= 1
 0 <= x_0_2 <= 1
 0 <= x_0_3 <= 1
 0 <= x_0_4 <= 1
 0 <= x_0_5 <= 1
 0 <= x_0_6 <= 1
 0 <= x_0_7 <= 1
 0 <= x_1_0 <= 1
 0 <= x_1_2 <= 1
 0 <= x_1_3 <= 1
 0 <= x_1_4 <= 1
 0 <= x_1_5 <= 1
 0 <= x_1_6 <= 1
 0 <= x_1_7 <= 1
 0 <= x_1_8 <= 1
 0 <= x_2_0 <= 1
 0 <= x_2_1 <= 1
 0 <= x_2_3 <= 1
 0 <= x_2_4 <= 1
 0 <= x_2_5 <= 1
 0 <= x_2_6 <= 1
 0 <= x_2_7 <= 1
 0 <= x_2_8 <= 1
 0 <= x_3_0 <= 1
 0 <= x_3_1 <= 1
 0 <= x_3_2 <= 1
 0 <= x_3_4 <= 1
 0 <= x_3_5 <= 1
 0 <= x_3_6 <= 1
 0 <= x_3_7 <= 1
 0 <= x_3_8 <= 1
 0 <= x_4_0 <= 1
 0 <= x_4_1 <= 1
 0 <= x_4_2 <= 1
 0 <= x_4_3 <= 1
 0 <= x_4_5 <= 1
 0 <= x_4_6 <= 1
 0 <= x_4_7 <= 1
 0 <= x_4_8 <= 1
 0 <= x_5_0 <= 1
 0 <= x_5_1 <= 1
 0 <= x_5_2 <= 1
 0 <= x_5_3 <= 1
 0 <= x_5_4 <= 1
 0 <= x_5_6 <= 1
 0 <= x_5_7 <= 1
 0 <= x_5_8 <= 1
 0 <= x_6_0 <= 1
 0 <= x_6_1 <= 1
 0 <= x_6_2 <= 1
 0 <= x_6_3 <= 1
 0 <= x_6_4 <= 1
 0 <= x_6_5 <= 1
 0 <= x_6_7 <= 1
 0 <= x_6_8 <= 1
 0 <= w_6_0 <= 1
 0 <= w_6_1 <= 1
 0 <= x_7_0 <= 1
 0 <= x_7_1 <= 1
 0 <= x_7_2 <= 1
 0 <= x_7_3 <= 1
 0 <= x_7_4 <= 1
 0 <= x_7_5 <= 1
 0 <= x_7_6 <= 1
 0 <= x_7_8 <= 1
 0 <= w_7_0 <= 1
 0 <= w_7_1 <= 1
 0 <= x_8_1 <= 1
 0 <= x_8_2 <= 1
 0 <= x_8_3 <= 1
 0 <= x_8_4 <= 1
 0 <= x_8_5 <= 1
 0 <= x_8_6 <= 1
 0 <= x_8_7 <= 1
 20 <= y_d_0 <= 100
 20 <= y_a_0 <= 100
 20 <= y_d_1 <= 100
 20 <= y_a_1 <= 100
 20 <= y_d_2 <= 100
 20 <= y_a_2 <= 100
 20 <= y_d_3 <= 100
 20 <= y_a_3 <= 100
 20 <= y_d_4 <= 100
 20 <= y_a_4 <= 100
 20 <= y_d_5 <= 100
 20 <= y_a_5 <= 100
 20 <= y_a_6 <= 100
 20 <= y_d_6 <= 100
 20 <= y_a_7 <= 100
 20 <= y_d_7 <= 100
 20 <= y_d_8 <= 100
 20 <= y_a_8 <= 100
 0 <= x_0_8 <= 1
 0 <= u_1 <= 8
 0 <= u_2 <= 8
 0 <= u_3 <= 8
 0 <= u_4 <= 8
 0 <= u_5 <= 8
 0 <= u_6 <= 8
 0 <= u_7 <= 8
 0 <= u_8 <= 8
 0 <= u_0 <= 8
 0 <= x_8_0 <= 1
Binaries
 x_0_1  x_0_2  x_0_3  x_0_4  x_0_5  x_0_6  x_0_7  x_1_0  x_1_2  x_1_3  x_1_4 
 x_1_5  x_1_6  x_1_7  x_1_8  x_2_0  x_2_1  x_2_3  x_2_4  x_2_5  x_2_6  x_2_7 
 x_2_8  x_3_0  x_3_1  x_3_2  x_3_4  x_3_5  x_3_6  x_3_7  x_3_8  x_4_0  x_4_1 
 x_4_2  x_4_3  x_4_5  x_4_6  x_4_7  x_4_8  x_5_0  x_5_1  x_5_2  x_5_3  x_5_4 
 x_5_6  x_5_7  x_5_8  x_6_0  x_6_1  x_6_2  x_6_3  x_6_4  x_6_5  x_6_7  x_6_8 
 w_6_0  w_6_1  x_7_0  x_7_1  x_7_2  x_7_3  x_7_4  x_7_5  x_7_6  x_7_8  w_7_0 
 w_7_1  x_8_1  x_8_2  x_8_3  x_8_4  x_8_5  x_8_6  x_8_7  x_0_8  x_8_0 
End
